fcc:                                    
   1.00000000000000     
    13.1313228675159994    0.0000000000000000    0.0000000000000000
     0.0000000000000000   13.1313228675159994    0.0000000000000000
     0.0000000000000000    0.0000000000000000   13.1313228675159994
   Ti   O 
    72   141
Direct
  0.0678735459934163  0.8246567584348767  0.7099957052520454
  0.9413316988310961  0.0490887955949840  0.6314365848485216
  0.2811758749861338  0.5881089322290030  0.1526322224945670
  0.3254009934255619  0.8998630493771684  0.6910753682033193
  0.0056704803674996  0.2752905164210088  0.4867223733623338
  0.5447101188439286  0.5679841879184917  0.4842581123745625
  0.1933721389706611  0.9546241125450976  0.9273788371380298
  0.7228482731422760  0.6170066550694335  0.0770510770143258
  0.7702941799228528  0.4091060943707051  0.5084575380055147
  0.9656027764126338  0.9441390067070736  0.8735186416622445
  0.5049831079925593  0.2466696607145237  0.7598225436005531
  0.6824951257017333  0.7608463785523381  0.4196710569012966
  0.3080856824695615  0.7645343574949274  0.3215648903128824
  0.5108024247310459  0.6237966263772635  0.2350887345852521
  0.7391922440555223  0.8952612142962472  0.9386020968985841
  0.4227287229882956  0.1998477108276429  0.3066279446846421
  0.2720297416753389  0.3234038560909034  0.1100986473719740
  0.1727642795442045  0.3561344194294864  0.6623909432064533
  0.3675703414336063  0.4721132475911988  0.3342050283040042
  0.7005257948661436  0.8621225207545193  0.1712488658942076
  0.5931644158677342  0.4351755593552085  0.7145991800071846
  0.4816859138345531  0.0107896022078795  0.8797710392782285
  0.5009291734386376  0.8354287241522227  0.0614791285512267
  0.5556604143224027  0.2375188700892620  0.5143464115821546
  0.9001514642193813  0.8152882140173070  0.4932237977694897
  0.6581402840723838  0.4546595068558535  0.2911930953743556
  0.7553649333640533  0.6142975219064547  0.6246492011676926
  0.0685139440325107  0.1937578484885250  0.8278256674448410
  0.6605071797486507  0.3892323982051643  0.9252502161335228
  0.9034849444396236  0.5916099435357810  0.3918662182239094
  0.6753756878470966  0.6581729006976549  0.8484884990075374
  0.3909897884508798  0.0850335302111167  0.5556804307711555
  0.9403057537065902  0.3886497302607294  0.7250335907971042
  0.2682623020139113  0.0301874609341193  0.3466057573795174
  0.1122226632934635  0.2057972436335116  0.2763486706272129
  0.0144155563175727  0.5709974819456352  0.1599990738222936
  0.3516802799081330  0.3740143412173434  0.8825109700310929
  0.4477790721704161  0.8195846421883679  0.4872371787383716
  0.4688956962724359  0.5840800565249274  0.9733841989030185
  0.0894363565957460  0.4224059751119316  0.9221338302476370
  0.6378320725865720  0.1213604383762439  0.9944622277916076
  0.2498758453631440  0.8672647522183956  0.1321285574490336
  0.3591867811985901  0.0725632853909062  0.0757164701480624
  0.2537190456484745  0.5542623114753639  0.7829010753481178
  0.7743426280393132  0.0198894493149224  0.3749342357829308
  0.1585028703719834  0.7992263424929299  0.4912190476820279
  0.8155928288814099  0.0808731934758185  0.1514202339109000
  0.9996068343916024  0.2876973645208327  0.1089182975344338
  0.3818854419343254  0.7713379765316672  0.8658094631657749
  0.6543122277230399  0.2211144660638465  0.2544498007159460
  0.6397591199846135  0.9838632943177889  0.5342765836864820
  0.1584839308528082  0.1187508743285631  0.6182791553574993
  0.0710419446921155  0.0181752362701728  0.1283736472426467
  0.1457444140447109  0.6955813703737809  0.9439235262339483
  0.2662542095070863  0.2703683694752034  0.4590886988616263
  0.1203238011540693  0.4678343787112670  0.3359373364633340
  0.7961330830283685  0.8524498806666233  0.7128765783522795
  0.0525028736919801  0.5858485000711434  0.5804386101275308
  0.5100175340581945  0.3443564544627670  0.0870779563100340
  0.9433675744206044  0.6284568915038369  0.7948648311115150
  0.8728506736941324  0.2120806581177710  0.9239353416491947
  0.6984545890735775  0.0709636107553068  0.7730129419051920
  0.0486602293186357  0.0059224884607259  0.4029116846790095
  0.7788423982050917  0.2018708756362609  0.6039546997548845
  0.8754304675706306  0.3703535039423688  0.2795527141459068
  0.4835916637064854  0.6587150198373817  0.6883084956425259
  0.8739322081004638  0.4541352391972469  0.0028311992162215
  0.5027863843479911  0.9842382990377004  0.2888859433314714
  0.2827701315092501  0.5440836973995616  0.5477261734900624
  0.0454541592336957  0.7790584680717776  0.2585724617513523
  0.9031633889488531  0.7274220139888400  0.0315728272371735
  0.3103923522973938  0.1199360776608415  0.7933072972950141
  0.2664980062382641  0.4061275768559638  0.7710596662331171
  0.7386495909308903  0.3314973407147443  0.3160667981681878
  0.8900892250920596  0.1832475126905264  0.0685689734020129
  0.3839084625009361  0.9146364847662043  0.0908063873545368
  0.6407672492574281  0.4611403151904325  0.4388732736285020
  0.4181148286475161  0.7911137631809414  0.7171308853588922
  0.3426614887074256  0.5995952647570432  0.6816696635000884
  0.2378435336017567  0.5103417753423245  0.4000294778562109
  0.4126897933749837  0.5125789803343294  0.4687046646478711
  0.7279774443567754  0.4834643793080090  0.0273967286461075
  0.1289432315468589  0.3297232552757260  0.3835055846731033
  0.7784443649759222  0.9581115630419988  0.2402484664524646
  0.6078357993792385  0.6426056867644870  0.9872418211059825
  0.9387258258179256  0.0110641783949657  0.1639604259953010
  0.9874740615928175  0.4671407903607749  0.2657686546932930
  0.6464714188000192  0.5090229476588780  0.8330589702120937
  0.2035490093356470  0.8349866693344511  0.6447988199261698
  0.0633093021141330  0.0325812601941721  0.5502566234243327
  0.0374077740866241  0.5172857172435723  0.4453371157021167
  0.1629791946051799  0.5091639165092590  0.6567948675454282
  0.7965480667484649  0.3375824277406315  0.9387690227803163
  0.7056223885373738  0.4737173208058003  0.6316001851768064
  0.8181871953278683  0.9609911404298250  0.8243546015245896
  0.8325897396083014  0.5393817003154041  0.5139490243288013
  0.4260676595480093  0.5674026407245382  0.1122018340225082
  0.4076105196801144  0.2230972605674217  0.4902673642044755
  0.6486825446660871  0.8275731094511316  0.0280604949219442
  0.9372211129653354  0.4780610153356027  0.8621956984052016
  0.9648373487377497  0.6558623853923080  0.2762532146563823
  0.9977136028315697  0.6774247377247180  0.9228813523375320
  0.2841238258644129  0.8986274447777143  0.2716155188667080
  0.2117978654817523  0.8163076366216394  0.9998360941252336
  0.7451059100496354  0.0821214684802148  0.5117220246249530
  0.8698016881721324  0.9272158832644399  0.6049963960479880
  0.6653188040952490  0.7951691070126659  0.2861890443853900
  0.5526475787846747  0.2599734113847604  0.3697759023540303
  0.4712836914642870  0.6901952666032137  0.5470280652291867
  0.7955398570922940  0.7497722237021598  0.1320777056149376
  0.8971579602228812  0.3551119236556022  0.4329291663112086
  0.6152045209715544  0.3525384082070213  0.1857308775633092
  0.9951100590525519  0.8576888456896358  0.3824270820009814
  0.8211816906121758  0.7147508490025589  0.3997754898551628
  0.1721149740193229  0.6557487901595628  0.5394705158011875
  0.9695582435262529  0.2589398102862015  0.2564414445291249
  0.4703899917386681  0.3901937301203987  0.7963274938878091
  0.7444866035522846  0.0031912334972519  0.0484366021503558
  0.9200097912436793  0.7955758739037921  0.7729581605846041
  0.7069932794074087  0.8026288853807789  0.8266682264204858
  0.6249610974326114  0.0003074429728941  0.3845375330001063
  0.4897287945741010  0.6600784811055378  0.8377091046647982
  0.9172731210331196  0.1791088043377579  0.5475443024024962
  0.5406001741409729  0.0916522278328077  0.5462083070103888
  0.5438633814870748  0.4549344460793432  0.9971796094761168
  0.8086419083876034  0.7513478837810398  0.6067899103245585
  0.3406807297494487  0.0379580423071020  0.9261019131820949
  0.0570520630960392  0.6780291554050812  0.7108649697257143
  0.5181035877986074  0.5281496432116354  0.6320117963808849
  0.8280013518625130  0.1075168995704099  0.7054918571497061
  0.6352281101195555  0.9886113492631524  0.8917396838181331
  0.3562525980477899  0.3357799149674063  0.3617294957727635
  0.5612953395596670  0.1345793086356430  0.8388457779409811
  0.0233300978275809  0.2787805724366859  0.9586197629841250
  0.1672537174271104  0.0863432836914996  0.8621607129544658
  0.4122978610285798  0.0585648838370501  0.3973900378576349
  0.8836174131155063  0.8607477923350639  0.9762491918149672
  0.4155233328878322  0.2773751291476327  0.1817990517715258
  0.7659878719660231  0.8851775982334661  0.4510206389316465
  0.6658833353054252  0.6486601643328199  0.5173581580429716
  0.5364899143342545  0.3245510227608474  0.6258279128150007
  0.0944596706340362  0.8504879271601390  0.8557758115444699
  0.2827890025725545  0.1913615937583892  0.0665300099192366
  0.2625889545994459  0.0342080775921095  0.6691224272779429
  0.5872271564544870  0.2695782883275266  0.9914092863098622
  0.4472893842227609  0.8385473052561585  0.3481365116255516
  0.2554514487557640  0.1176643343548300  0.4991512582641524
  0.8803831862730449  0.5823204947167446  0.0955924051015859
  0.0363928029663031  0.1475041693261994  0.6972890275349740
  0.2755087912210783  0.3814176538601178  0.5580587113059731
  0.0286966508393003  0.4550047110150459  0.0531883594905957
  0.7482172244353493  0.1468523004960840  0.8971139207991692
  0.9629200692166801  0.0984325990766919  0.8812107450167662
  0.1075522080830523  0.8814209918308469  0.1743156300234804
  0.0555689015233099  0.9721030974600270  0.9885784060265514
  0.4063541909340175  0.1742835032571790  0.6770358900552466
  0.6436976469900849  0.3210990791198063  0.7962972487350249
  0.6785325600650060  0.9549485008484743  0.6775431337785366
  0.4072627310201727  0.7212467632539061  0.9987502685506121
  0.0136881209369157  0.9645048268903845  0.7347473797477360
  0.2195531566053639  0.0048830604472234  0.0723949496381394
  0.1445468916018279  0.2490228508442274  0.5533463616462377
  0.9695515289845051  0.6785277869229401  0.5000884049314474
  0.9098950921151439  0.0241692296561935  0.4096975811019043
  0.2964816779908562  0.4480572224784389  0.2024043622727112
  0.8715383809897709  0.3690834372328080  0.1353891505171104
  0.8018246811619126  0.5054902867238358  0.3143710795464773
  0.4813843702614159  0.8702284162926899  0.9133187339067461
  0.3083598514400567  0.7715180625582819  0.4686855954771493
  0.2112598598094125  0.3667901383897604  0.9701428544644710
  0.3982899566198609  0.9346659692747435  0.5605293291669876
  0.2057519006416934  0.6051332461470060  0.0355204103317303
  0.6978821767736550  0.2778580914072665  0.5063082014330472
  0.7758342789174349  0.1421587857640734  0.2871368425201856
  0.5683034796705557  0.9285618907898218  0.1648539227272650
  0.5893882118424496  0.8462845263286090  0.5109243193175819
  0.8009704311351538  0.6226839951648386  0.7669396414910745
  0.3816571698538906  0.3733916285811053  0.0262477289311463
  0.0332461119275455  0.8331547509865866  0.5692168963174717
  0.1211685127706916  0.0484972327429054  0.2765809400659984
  0.9450763925210919  0.5333879796564349  0.6773410834567228
  0.6324797847963047  0.6703418523171685  0.7050962008455327
  0.4293983880003482  0.9993947487424946  0.7515212291957066
  0.1292280905837786  0.5491437916017402  0.8651881406976388
  0.3556437814240341  0.5258333003664225  0.8948255037962071
  0.1793539614407138  0.9347912377407032  0.4365561217029745
  0.3712709404409114  0.0711978046552254  0.2198815188727490
  0.1462375695228542  0.5667142391628294  0.2234646889259281
  0.9152827754567012  0.2662707356715154  0.7959052883862303
  0.2579932698377070  0.1881496354668042  0.3210579828680228
  0.0822011181449921  0.1627526820246608  0.1317153455461745
  0.3872479972988215  0.2354013275132417  0.8604779007484110
  0.5076648171935472  0.4793105047691385  0.2897051190466596
  0.1379915685867004  0.3289714257517193  0.1788475604071031
  0.5137729943307446  0.7411640447045944  0.1650606538981839
  0.8313908112718958  0.3397952247099601  0.6323686041269312
  0.1638269641244183  0.7448665246532353  0.3514790305831473
  0.0525770347977529  0.1607419388331472  0.4040468813309652
  0.5591700314099832  0.6603089435842110  0.3703800627088953
  0.2046976173663722  0.2202123221692859  0.7307300872274343
  0.0789991848964366  0.3533114635403739  0.7883085606398658
  0.5444042060023464  0.1295174739399399  0.2460869976116878
  0.0315612325258002  0.7111035684840268  0.1059259576071284
  0.0272238906067413  0.3695043891080981  0.6059188510327622
  0.2531190223752113  0.6926646890320297  0.8435320721766625
  0.7926679486203382  0.6663472121344305  0.9492989954788137
  0.6486171962774530  0.5748539036853423  0.1970209551422923
  0.2862593817945100  0.8841829008791868  0.8295850578763728
  0.6534883836037155  0.1713479637312069  0.6776590674786299
  0.5023710119666992  0.0776900480413291  0.0250537030397724
  0.2720976266207424  0.7333178080783342  0.1770202606589517
  0.6928994822892320  0.1715951116096187  0.1188823646057836
  0.3668318419422179  0.6245949913203396  0.2909023798561222
 
  0.00000000E+00  0.00000000E+00  0.00000000E+00
  0.00000000E+00  0.00000000E+00  0.00000000E+00
  0.00000000E+00  0.00000000E+00  0.00000000E+00
  0.00000000E+00  0.00000000E+00  0.00000000E+00
  0.00000000E+00  0.00000000E+00  0.00000000E+00
  0.00000000E+00  0.00000000E+00  0.00000000E+00
  0.00000000E+00  0.00000000E+00  0.00000000E+00
  0.00000000E+00  0.00000000E+00  0.00000000E+00
  0.00000000E+00  0.00000000E+00  0.00000000E+00
  0.00000000E+00  0.00000000E+00  0.00000000E+00
  0.00000000E+00  0.00000000E+00  0.00000000E+00
  0.00000000E+00  0.00000000E+00  0.00000000E+00
  0.00000000E+00  0.00000000E+00  0.00000000E+00
  0.00000000E+00  0.00000000E+00  0.00000000E+00
  0.00000000E+00  0.00000000E+00  0.00000000E+00
  0.00000000E+00  0.00000000E+00  0.00000000E+00
  0.00000000E+00  0.00000000E+00  0.00000000E+00
  0.00000000E+00  0.00000000E+00  0.00000000E+00
  0.00000000E+00  0.00000000E+00  0.00000000E+00
  0.00000000E+00  0.00000000E+00  0.00000000E+00
  0.00000000E+00  0.00000000E+00  0.00000000E+00
  0.00000000E+00  0.00000000E+00  0.00000000E+00
  0.00000000E+00  0.00000000E+00  0.00000000E+00
  0.00000000E+00  0.00000000E+00  0.00000000E+00
  0.00000000E+00  0.00000000E+00  0.00000000E+00
  0.00000000E+00  0.00000000E+00  0.00000000E+00
  0.00000000E+00  0.00000000E+00  0.00000000E+00
  0.00000000E+00  0.00000000E+00  0.00000000E+00
  0.00000000E+00  0.00000000E+00  0.00000000E+00
  0.00000000E+00  0.00000000E+00  0.00000000E+00
  0.00000000E+00  0.00000000E+00  0.00000000E+00
  0.00000000E+00  0.00000000E+00  0.00000000E+00
  0.00000000E+00  0.00000000E+00  0.00000000E+00
  0.00000000E+00  0.00000000E+00  0.00000000E+00
  0.00000000E+00  0.00000000E+00  0.00000000E+00
  0.00000000E+00  0.00000000E+00  0.00000000E+00
  0.00000000E+00  0.00000000E+00  0.00000000E+00
  0.00000000E+00  0.00000000E+00  0.00000000E+00
  0.00000000E+00  0.00000000E+00  0.00000000E+00
  0.00000000E+00  0.00000000E+00  0.00000000E+00
  0.00000000E+00  0.00000000E+00  0.00000000E+00
  0.00000000E+00  0.00000000E+00  0.00000000E+00
  0.00000000E+00  0.00000000E+00  0.00000000E+00
  0.00000000E+00  0.00000000E+00  0.00000000E+00
  0.00000000E+00  0.00000000E+00  0.00000000E+00
  0.00000000E+00  0.00000000E+00  0.00000000E+00
  0.00000000E+00  0.00000000E+00  0.00000000E+00
  0.00000000E+00  0.00000000E+00  0.00000000E+00
  0.00000000E+00  0.00000000E+00  0.00000000E+00
  0.00000000E+00  0.00000000E+00  0.00000000E+00
  0.00000000E+00  0.00000000E+00  0.00000000E+00
  0.00000000E+00  0.00000000E+00  0.00000000E+00
  0.00000000E+00  0.00000000E+00  0.00000000E+00
  0.00000000E+00  0.00000000E+00  0.00000000E+00
  0.00000000E+00  0.00000000E+00  0.00000000E+00
  0.00000000E+00  0.00000000E+00  0.00000000E+00
  0.00000000E+00  0.00000000E+00  0.00000000E+00
  0.00000000E+00  0.00000000E+00  0.00000000E+00
  0.00000000E+00  0.00000000E+00  0.00000000E+00
  0.00000000E+00  0.00000000E+00  0.00000000E+00
  0.00000000E+00  0.00000000E+00  0.00000000E+00
  0.00000000E+00  0.00000000E+00  0.00000000E+00
  0.00000000E+00  0.00000000E+00  0.00000000E+00
  0.00000000E+00  0.00000000E+00  0.00000000E+00
  0.00000000E+00  0.00000000E+00  0.00000000E+00
  0.00000000E+00  0.00000000E+00  0.00000000E+00
  0.00000000E+00  0.00000000E+00  0.00000000E+00
  0.00000000E+00  0.00000000E+00  0.00000000E+00
  0.00000000E+00  0.00000000E+00  0.00000000E+00
  0.00000000E+00  0.00000000E+00  0.00000000E+00
  0.00000000E+00  0.00000000E+00  0.00000000E+00
  0.00000000E+00  0.00000000E+00  0.00000000E+00
  0.00000000E+00  0.00000000E+00  0.00000000E+00
  0.00000000E+00  0.00000000E+00  0.00000000E+00
  0.00000000E+00  0.00000000E+00  0.00000000E+00
  0.00000000E+00  0.00000000E+00  0.00000000E+00
  0.00000000E+00  0.00000000E+00  0.00000000E+00
  0.00000000E+00  0.00000000E+00  0.00000000E+00
  0.00000000E+00  0.00000000E+00  0.00000000E+00
  0.00000000E+00  0.00000000E+00  0.00000000E+00
  0.00000000E+00  0.00000000E+00  0.00000000E+00
  0.00000000E+00  0.00000000E+00  0.00000000E+00
  0.00000000E+00  0.00000000E+00  0.00000000E+00
  0.00000000E+00  0.00000000E+00  0.00000000E+00
  0.00000000E+00  0.00000000E+00  0.00000000E+00
  0.00000000E+00  0.00000000E+00  0.00000000E+00
  0.00000000E+00  0.00000000E+00  0.00000000E+00
  0.00000000E+00  0.00000000E+00  0.00000000E+00
  0.00000000E+00  0.00000000E+00  0.00000000E+00
  0.00000000E+00  0.00000000E+00  0.00000000E+00
  0.00000000E+00  0.00000000E+00  0.00000000E+00
  0.00000000E+00  0.00000000E+00  0.00000000E+00
  0.00000000E+00  0.00000000E+00  0.00000000E+00
  0.00000000E+00  0.00000000E+00  0.00000000E+00
  0.00000000E+00  0.00000000E+00  0.00000000E+00
  0.00000000E+00  0.00000000E+00  0.00000000E+00
  0.00000000E+00  0.00000000E+00  0.00000000E+00
  0.00000000E+00  0.00000000E+00  0.00000000E+00
  0.00000000E+00  0.00000000E+00  0.00000000E+00
  0.00000000E+00  0.00000000E+00  0.00000000E+00
  0.00000000E+00  0.00000000E+00  0.00000000E+00
  0.00000000E+00  0.00000000E+00  0.00000000E+00
  0.00000000E+00  0.00000000E+00  0.00000000E+00
  0.00000000E+00  0.00000000E+00  0.00000000E+00
  0.00000000E+00  0.00000000E+00  0.00000000E+00
  0.00000000E+00  0.00000000E+00  0.00000000E+00
  0.00000000E+00  0.00000000E+00  0.00000000E+00
  0.00000000E+00  0.00000000E+00  0.00000000E+00
  0.00000000E+00  0.00000000E+00  0.00000000E+00
  0.00000000E+00  0.00000000E+00  0.00000000E+00
  0.00000000E+00  0.00000000E+00  0.00000000E+00
  0.00000000E+00  0.00000000E+00  0.00000000E+00
  0.00000000E+00  0.00000000E+00  0.00000000E+00
  0.00000000E+00  0.00000000E+00  0.00000000E+00
  0.00000000E+00  0.00000000E+00  0.00000000E+00
  0.00000000E+00  0.00000000E+00  0.00000000E+00
  0.00000000E+00  0.00000000E+00  0.00000000E+00
  0.00000000E+00  0.00000000E+00  0.00000000E+00
  0.00000000E+00  0.00000000E+00  0.00000000E+00
  0.00000000E+00  0.00000000E+00  0.00000000E+00
  0.00000000E+00  0.00000000E+00  0.00000000E+00
  0.00000000E+00  0.00000000E+00  0.00000000E+00
  0.00000000E+00  0.00000000E+00  0.00000000E+00
  0.00000000E+00  0.00000000E+00  0.00000000E+00
  0.00000000E+00  0.00000000E+00  0.00000000E+00
  0.00000000E+00  0.00000000E+00  0.00000000E+00
  0.00000000E+00  0.00000000E+00  0.00000000E+00
  0.00000000E+00  0.00000000E+00  0.00000000E+00
  0.00000000E+00  0.00000000E+00  0.00000000E+00
  0.00000000E+00  0.00000000E+00  0.00000000E+00
  0.00000000E+00  0.00000000E+00  0.00000000E+00
  0.00000000E+00  0.00000000E+00  0.00000000E+00
  0.00000000E+00  0.00000000E+00  0.00000000E+00
  0.00000000E+00  0.00000000E+00  0.00000000E+00
  0.00000000E+00  0.00000000E+00  0.00000000E+00
  0.00000000E+00  0.00000000E+00  0.00000000E+00
  0.00000000E+00  0.00000000E+00  0.00000000E+00
  0.00000000E+00  0.00000000E+00  0.00000000E+00
  0.00000000E+00  0.00000000E+00  0.00000000E+00
  0.00000000E+00  0.00000000E+00  0.00000000E+00
  0.00000000E+00  0.00000000E+00  0.00000000E+00
  0.00000000E+00  0.00000000E+00  0.00000000E+00
  0.00000000E+00  0.00000000E+00  0.00000000E+00
  0.00000000E+00  0.00000000E+00  0.00000000E+00
  0.00000000E+00  0.00000000E+00  0.00000000E+00
  0.00000000E+00  0.00000000E+00  0.00000000E+00
  0.00000000E+00  0.00000000E+00  0.00000000E+00
  0.00000000E+00  0.00000000E+00  0.00000000E+00
  0.00000000E+00  0.00000000E+00  0.00000000E+00
  0.00000000E+00  0.00000000E+00  0.00000000E+00
  0.00000000E+00  0.00000000E+00  0.00000000E+00
  0.00000000E+00  0.00000000E+00  0.00000000E+00
  0.00000000E+00  0.00000000E+00  0.00000000E+00
  0.00000000E+00  0.00000000E+00  0.00000000E+00
  0.00000000E+00  0.00000000E+00  0.00000000E+00
  0.00000000E+00  0.00000000E+00  0.00000000E+00
  0.00000000E+00  0.00000000E+00  0.00000000E+00
  0.00000000E+00  0.00000000E+00  0.00000000E+00
  0.00000000E+00  0.00000000E+00  0.00000000E+00
  0.00000000E+00  0.00000000E+00  0.00000000E+00
  0.00000000E+00  0.00000000E+00  0.00000000E+00
  0.00000000E+00  0.00000000E+00  0.00000000E+00
  0.00000000E+00  0.00000000E+00  0.00000000E+00
  0.00000000E+00  0.00000000E+00  0.00000000E+00
  0.00000000E+00  0.00000000E+00  0.00000000E+00
  0.00000000E+00  0.00000000E+00  0.00000000E+00
  0.00000000E+00  0.00000000E+00  0.00000000E+00
  0.00000000E+00  0.00000000E+00  0.00000000E+00
  0.00000000E+00  0.00000000E+00  0.00000000E+00
  0.00000000E+00  0.00000000E+00  0.00000000E+00
  0.00000000E+00  0.00000000E+00  0.00000000E+00
  0.00000000E+00  0.00000000E+00  0.00000000E+00
  0.00000000E+00  0.00000000E+00  0.00000000E+00
  0.00000000E+00  0.00000000E+00  0.00000000E+00
  0.00000000E+00  0.00000000E+00  0.00000000E+00
  0.00000000E+00  0.00000000E+00  0.00000000E+00
  0.00000000E+00  0.00000000E+00  0.00000000E+00
  0.00000000E+00  0.00000000E+00  0.00000000E+00
  0.00000000E+00  0.00000000E+00  0.00000000E+00
  0.00000000E+00  0.00000000E+00  0.00000000E+00
  0.00000000E+00  0.00000000E+00  0.00000000E+00
  0.00000000E+00  0.00000000E+00  0.00000000E+00
  0.00000000E+00  0.00000000E+00  0.00000000E+00
  0.00000000E+00  0.00000000E+00  0.00000000E+00
  0.00000000E+00  0.00000000E+00  0.00000000E+00
  0.00000000E+00  0.00000000E+00  0.00000000E+00
  0.00000000E+00  0.00000000E+00  0.00000000E+00
  0.00000000E+00  0.00000000E+00  0.00000000E+00
  0.00000000E+00  0.00000000E+00  0.00000000E+00
  0.00000000E+00  0.00000000E+00  0.00000000E+00
  0.00000000E+00  0.00000000E+00  0.00000000E+00
  0.00000000E+00  0.00000000E+00  0.00000000E+00
  0.00000000E+00  0.00000000E+00  0.00000000E+00
  0.00000000E+00  0.00000000E+00  0.00000000E+00
  0.00000000E+00  0.00000000E+00  0.00000000E+00
  0.00000000E+00  0.00000000E+00  0.00000000E+00
  0.00000000E+00  0.00000000E+00  0.00000000E+00
  0.00000000E+00  0.00000000E+00  0.00000000E+00
  0.00000000E+00  0.00000000E+00  0.00000000E+00
  0.00000000E+00  0.00000000E+00  0.00000000E+00
  0.00000000E+00  0.00000000E+00  0.00000000E+00
  0.00000000E+00  0.00000000E+00  0.00000000E+00
  0.00000000E+00  0.00000000E+00  0.00000000E+00
  0.00000000E+00  0.00000000E+00  0.00000000E+00
  0.00000000E+00  0.00000000E+00  0.00000000E+00
  0.00000000E+00  0.00000000E+00  0.00000000E+00
  0.00000000E+00  0.00000000E+00  0.00000000E+00
  0.00000000E+00  0.00000000E+00  0.00000000E+00
  0.00000000E+00  0.00000000E+00  0.00000000E+00
  0.00000000E+00  0.00000000E+00  0.00000000E+00
  0.00000000E+00  0.00000000E+00  0.00000000E+00
  0.00000000E+00  0.00000000E+00  0.00000000E+00
  0.00000000E+00  0.00000000E+00  0.00000000E+00
