fcc:                                    
   1.00000000000000     
    13.0708233167099994    0.0000000000000000    0.0000000000000000
     0.0000000000000000   13.0708233167099994    0.0000000000000000
     0.0000000000000000    0.0000000000000000   13.0708233167099994
   Ti   O 
    72   140
Direct
  0.0011443513371171  0.4239579547857211  0.5479028308947679
  0.3613449581272241  0.2465757171075803  0.2877812146006444
  0.8143709255765118  0.7658839645810579  0.6628273432914776
  0.1861199566700811  0.6261515463086270  0.5438664228647565
  0.5594337773723423  0.1247423509648940  0.5345479811433490
  0.9270115899971632  0.8569250352543496  0.4588099216400264
  0.6131082949452888  0.2932417837330445  0.7024312598070019
  0.4801185145374510  0.3486078313841120  0.4992050791746684
  0.9092268661526636  0.2069828815377927  0.3875613548906163
  0.8651840022377397  0.7781522286009993  0.8700177309798406
  0.4121594822101791  0.7031284369015870  0.6839649464744664
  0.1602283536443052  0.2216291549994037  0.1337025676103335
  0.4433123424427639  0.6630903737304645  0.1598670347875785
  0.7205918319748347  0.4396035919225801  0.9925653332146429
  0.5908481849894531  0.0744797338793928  0.2573843357385912
  0.5948920165163751  0.0534181787791209  0.7988967907525770
  0.1005187162174807  0.0708693132014362  0.5040634527041454
  0.9481075047522507  0.9800927490927893  0.8101100625230155
  0.0603712557146529  0.9926358164602807  0.2629355040705508
  0.4234088088594824  0.9254839697961136  0.0994393649128534
  0.7957515937751215  0.0390806746557978  0.6377922679207085
  0.9814631059183239  0.4415229057178131  0.2821957866843095
  0.0157948273642806  0.5934064660135268  0.7005424130314539
  0.6903805211130666  0.7422491041178698  0.4502745028083789
  0.7573376564188624  0.3205355975962367  0.5200267387644022
  0.4771514740087195  0.4490856117326950  0.2798100202134451
  0.4318572395070963  0.1812976488540392  0.0903986181340312
  0.7114837806127329  0.2024289927154576  0.0874173079934132
  0.6336332081924098  0.6365615235326038  0.8213201796169185
  0.3418647213226694  0.9570983896852696  0.6174478743357692
  0.2908468546549379  0.1923666295744667  0.5065673138198192
  0.7184200690947947  0.9739815701821078  0.4191057878023572
  0.0130522940706572  0.3563696559268448  0.8197501575622450
  0.9828554531088814  0.7204370267798293  0.2776273496083699
  0.6903152553756596  0.7086298846358623  0.0426369306924729
  0.2086740936756976  0.0008766778908990  0.0664904868166516
  0.6531878482560584  0.6131920392634151  0.2576526853966824
  0.8099694328861369  0.4642861722098752  0.7343131659096538
  0.1892542512857602  0.1544468534196571  0.7339227633172296
  0.5714915794025415  0.8958887459553618  0.5979810716502041
  0.1588431804048773  0.3315047878517685  0.3809407811786895
  0.4402925324626346  0.4684017907893842  0.7186022205876249
  0.8567635863471816  0.0698690030131612  0.2135105409065967
  0.9108455752225603  0.3249663040262457  0.0864434745734727
  0.0894971806727436  0.8260221471133505  0.6186275740548066
  0.1103877378729912  0.6869433907551583  0.9464366246923882
  0.3220037229261542  0.4305247475671894  0.1094732964670193
  0.2199369249676588  0.5682072564445207  0.2743136639680202
  0.2065837353904429  0.7810054474725019  0.1783497609556032
  0.2251636973217867  0.5387062849265274  0.8210069148598638
  0.2408841606160101  0.4054827203806862  0.6229846921110950
  0.7164114809973335  0.3434153190008404  0.2594764760191642
  0.8012260596817117  0.1822037753794481  0.8684279784730133
  0.3299835340600002  0.7618674474341293  0.9443994711892651
  0.8509199912803016  0.5789247995318488  0.4655088899366630
  0.5323806167237918  0.2763163823347235  0.9141709056427586
  0.5240163621714051  0.8476312042373676  0.3206925202843336
  0.8963301762362200  0.6108026732778831  0.0930889600928233
  0.0622054231715758  0.1307564524312366  0.9448686433910737
  0.1818531050066406  0.9221820430971841  0.8058413018946912
  0.3085551985086866  0.9889665352341896  0.3306637506817218
  0.5271808938985922  0.8462479309631270  0.8410803079796024
  0.6753623717850109  0.9737075545451582  0.0400790427368774
  0.3665368021702143  0.0662142130572257  0.8684334385111965
  0.4232936769791132  0.6176417914513236  0.4621159234533737
  0.6266168570889634  0.5460588746484506  0.5708610766717390
  0.0989480638983180  0.4495769957388578  0.0329188008442905
  0.2711463132715394  0.3208667454367599  0.9015977374562302
  0.2846499704591223  0.7884347013081155  0.4319489945076463
  0.9943853811119037  0.8664400110256855  0.0549499985788870
  0.4886452638950016  0.5282511506713961  0.9743273426125031
  0.9468632573619211  0.2082937185451484  0.6364078871099637
  0.3020008012396159  0.6691167664487550  0.1916019965373824
  0.4000534847328238  0.2699233001175965  0.9780679968109195
  0.5774776518177576  0.1529445452440676  0.6823342384338451
  0.6063901308233444  0.7481431441052091  0.9240663002539508
  0.1492036302170717  0.4292327635400439  0.8911999061405351
  0.3046041016052448  0.1842184316954501  0.1567193595680690
  0.1545821448404920  0.1989000419028640  0.4447864094259538
  0.3379125680073340  0.5940016040689213  0.7486590060133990
  0.7605063906939310  0.6251133269441819  0.1549339147217240
  0.9480201741278554  0.4847298312360242  0.7931280888370896
  0.1976276874655864  0.1411570540082846  0.0052696371074012
  0.4464122817091313  0.8625050011308424  0.9704965934573955
  0.5957042462341079  0.8682895410335821  0.4527224639862164
  0.7007799540212953  0.3529739649621211  0.1154651028723870
  0.3877087556414927  0.7805289680366242  0.8130178400818291
  0.3276374670493367  0.1278989894150502  0.3693313050745687
  0.5193029460189300  0.5407694059359274  0.8216101944699881
  0.3875439834380980  0.3835035274055371  0.6048484318063322
  0.4963976961877053  0.3361266326786855  0.7833578772150305
  0.3038635147226401  0.4112455696440343  0.7715258309865636
  0.1994151373591095  0.5129625943955377  0.1279776281509278
  0.7492850133578002  0.3479891495565496  0.6712709076971896
  0.4911130476567975  0.4786209199840539  0.4378239757674917
  0.4772627414915426  0.0119124901502805  0.5686543777614398
  0.7462657310070842  0.7315914663922535  0.7907376396705345
  0.7926287048267396  0.1714785544176694  0.5889446655108377
  0.2460050050141308  0.0674959958078107  0.5610282168104683
  0.5512628710526930  0.9931712401183983  0.1186908792261215
  0.3127227697819941  0.9884598482293270  0.1811015227473506
  0.0347668399629313  0.3856676214142422  0.1508196866023659
  0.9520255637438989  0.5772704053770975  0.2292047151299821
  0.1505212260602640  0.4991496198374790  0.6928560140730732
  0.8018439443751562  0.0680152161747446  0.3482511954807103
  0.6474373973900371  0.9407703590724540  0.2889060440135244
  0.7715601364876433  0.2797881884605988  0.3814590519331975
  0.0972730895814871  0.0492791515443156  0.8162286487687157
  0.9312951502874492  0.6959502792667440  0.4101080761312284
  0.7191653691337974  0.0599763261070409  0.1569241918759640
  0.2190357782779687  0.8726590239458244  0.6692529726514502
  0.7611813769466165  0.4333903602668590  0.8604439621160705
  0.6146574301231996  0.2722193448452445  0.5323053178476526
  0.9963261518424092  0.7713156174732970  0.9290712342861982
  0.1480490328018616  0.7647036065772640  0.4892810145812493
  0.4517802993723804  0.5118177065165873  0.1290347410447243
  0.2770113421623829  0.0321481666212122  0.7445540754116553
  0.9958711887773480  0.8665329635757714  0.3278605400324828
  0.6115009144246112  0.9569252031168224  0.9142999837744137
  0.2890930731074254  0.8420743187580264  0.0677152088732015
  0.4434538223941616  0.8375506473637140  0.6254876301285466
  0.9878518071685475  0.3682868416266243  0.9652169459791851
  0.4866810123033263  0.3142362932768498  0.3508353818987233
  0.1361106173113551  0.3889720209479980  0.5149479065878154
  0.3040784945717182  0.1935410005470150  0.8266986994268558
  0.4534482463869066  0.9766944366462700  0.7901725268771889
  0.6665913915195365  0.0161619675614601  0.5621465988085765
  0.0182380182393037  0.3089675905738766  0.3453778597818912
  0.1208485094810848  0.9036878262155089  0.1619469783616620
  0.2616750685024788  0.9733457608587254  0.9218908513159058
  0.9695231056850581  0.1262114609460447  0.4935560851479587
  0.1273726517132404  0.6928255935107732  0.6658049224724473
  0.9204340921562865  0.6894474101862975  0.7501312137265859
  0.1541028577808392  0.0107545579281810  0.3692738791047215
  0.6336127627645649  0.7465712120484089  0.3071251186475580
  0.4243715481705231  0.6659534445877830  0.0109080984092116
  0.9426166122860262  0.7820938675480910  0.5837933872686504
  0.2564655869853688  0.8449525490146935  0.3020269148276363
  0.9776124345929114  0.1088147983211893  0.2901276853633976
  0.0226780199859708  0.2095281018432934  0.0634427427132832
  0.2681070498271902  0.6347022653103153  0.3968010629300232
  0.8569237604729572  0.3843836801806140  0.2307765494799150
  0.0266269536990703  0.5750559917388779  0.0214470810855168
  0.3181595366349477  0.9220370046567149  0.4659054198601347
  0.8249550112088186  0.6859240107387811  0.9781125797498919
  0.1140331396680275  0.7453820751403987  0.0760832713767139
  0.6558142241472698  0.2141168215353197  0.2324715249938276
  0.5862354691537218  0.6625205008933035  0.1317176896884359
  0.0463174191340562  0.9348556192082516  0.5271334122423896
  0.7361124719250748  0.1005003115698730  0.9776246655976435
  0.8761235802678128  0.9100569154121877  0.9301962848737264
  0.3909308187152505  0.0581025155430365  0.0201825762214681
  0.8039462229690977  0.2804749057829831  0.9840942208490490
  0.0927167170123987  0.6086807696789549  0.8273589847777802
  0.4556299613844533  0.9736662057296277  0.3157532013035788
  0.3082854776733815  0.3192449798976584  0.4231695061604617
  0.9064566309168327  0.3117767675420225  0.5225183032685393
  0.0856943095406767  0.1381426206250143  0.6375672829412251
  0.7434401175273277  0.0760062362306663  0.7770587209356817
  0.7004337548674557  0.5559469101425197  0.7119394213347375
  0.4274279049505313  0.7613570753448340  0.3943678139274677
  0.1941887174133616  0.7984872787261689  0.8830715979849200
  0.4631798667642903  0.8106463897811916  0.1861805553000092
  0.7162052855703889  0.8451188120218770  0.0758324604939534
  0.6307831613212682  0.4606510850613129  0.2721890721294679
  0.1216549966454726  0.6888088387711976  0.2676534322498234
  0.4707561932021115  0.1512955132676297  0.2289961517598991
  0.6168159993222355  0.9190618833057906  0.7346606084745365
  0.4199953717802011  0.3350764585015042  0.1751027183232794
  0.6992436082390073  0.8167439132591513  0.5905495675101465
  0.2478312062930768  0.6291823217153411  0.9396532006574904
  0.7719892724731383  0.6591415608830286  0.5566673670020126
  0.5739198347032000  0.4009126960825700  0.9738664339685962
  0.7388168319026668  0.4602422604119721  0.4965612814689513
  0.2129516340454716  0.2976927578080305  0.2520063098669889
  0.5633297878016953  0.4192102025707763  0.6297016032367213
  0.6072369114631488  0.0957180756626330  0.4008353298953815
  0.5530118254466938  0.7270150151088864  0.7397308735455995
  0.5799199718676072  0.6574023927983909  0.4830530554098896
  0.8968978332121951  0.5130629365189359  0.6157755578125572
  0.9244190726002535  0.1028238216459890  0.8994967651070102
  0.8975526797944420  0.2677526746694503  0.7909012789400260
  0.3473381216647322  0.4570788522421485  0.9674922973124397
  0.4364590771675768  0.2034791437540119  0.5268411734874131
  0.9268308098810293  0.7512999758361412  0.1480764381105590
  0.4750650086956285  0.5839705691728273  0.6199520336314087
  0.4946575241342293  0.6016346113974743  0.2915975152588073
  0.9316303916254294  0.9682517476559912  0.1556235317693697
  0.8472331854575595  0.8892828243473525  0.7383744136504904
  0.1228993495373713  0.4747356847539364  0.3273539766441868
  0.8441287385203541  0.9640718128862401  0.5198889691108214
  0.2444937926622598  0.2559785199372489  0.6356244078157587
  0.7919293355828841  0.8404525562227648  0.3951096519088100
  0.5727899545973014  0.2040976060343445  0.0426127008225404
  0.8502666909621550  0.2055840887282414  0.1592832049415759
  0.1383531097550832  0.0854063184319410  0.1773576129944296
  0.0453599756292162  0.8791056686186252  0.7561043694613170
  0.0503341160297802  0.5702874682974063  0.5436019447469442
  0.2828738089585180  0.5190217921698455  0.5410887105700904
  0.5004745327419277  0.1363021585158373  0.8698851792214974
  0.8498799456052079  0.4739588874775570  0.0542463361222279
  0.0738421209351274  0.9885832651508546  0.9963177169722186
  0.2114773119611242  0.3376843982591899  0.0496348689264331
  0.6645467430328303  0.2502323730842911  0.8366346080711283
  0.3229804771941783  0.7069333143142341  0.5640802973687432
  0.6575468569983239  0.5731195748777643  0.9653717809495996
  0.1126770593778976  0.2395288873702008  0.8397660376617647
  0.3296465399459921  0.4726526825099611  0.2744321596444063
  0.7530127331424815  0.6147746030798559  0.3671677545127466
  0.0271316587074880  0.3427460295873988  0.6706279148994730
  0.9259258599274555  0.0645359097143131  0.6967678820832841
  0.9339301638351573  0.4733353821133242  0.4163444650947729
 
  0.00000000E+00  0.00000000E+00  0.00000000E+00
  0.00000000E+00  0.00000000E+00  0.00000000E+00
  0.00000000E+00  0.00000000E+00  0.00000000E+00
  0.00000000E+00  0.00000000E+00  0.00000000E+00
  0.00000000E+00  0.00000000E+00  0.00000000E+00
  0.00000000E+00  0.00000000E+00  0.00000000E+00
  0.00000000E+00  0.00000000E+00  0.00000000E+00
  0.00000000E+00  0.00000000E+00  0.00000000E+00
  0.00000000E+00  0.00000000E+00  0.00000000E+00
  0.00000000E+00  0.00000000E+00  0.00000000E+00
  0.00000000E+00  0.00000000E+00  0.00000000E+00
  0.00000000E+00  0.00000000E+00  0.00000000E+00
  0.00000000E+00  0.00000000E+00  0.00000000E+00
  0.00000000E+00  0.00000000E+00  0.00000000E+00
  0.00000000E+00  0.00000000E+00  0.00000000E+00
  0.00000000E+00  0.00000000E+00  0.00000000E+00
  0.00000000E+00  0.00000000E+00  0.00000000E+00
  0.00000000E+00  0.00000000E+00  0.00000000E+00
  0.00000000E+00  0.00000000E+00  0.00000000E+00
  0.00000000E+00  0.00000000E+00  0.00000000E+00
  0.00000000E+00  0.00000000E+00  0.00000000E+00
  0.00000000E+00  0.00000000E+00  0.00000000E+00
  0.00000000E+00  0.00000000E+00  0.00000000E+00
  0.00000000E+00  0.00000000E+00  0.00000000E+00
  0.00000000E+00  0.00000000E+00  0.00000000E+00
  0.00000000E+00  0.00000000E+00  0.00000000E+00
  0.00000000E+00  0.00000000E+00  0.00000000E+00
  0.00000000E+00  0.00000000E+00  0.00000000E+00
  0.00000000E+00  0.00000000E+00  0.00000000E+00
  0.00000000E+00  0.00000000E+00  0.00000000E+00
  0.00000000E+00  0.00000000E+00  0.00000000E+00
  0.00000000E+00  0.00000000E+00  0.00000000E+00
  0.00000000E+00  0.00000000E+00  0.00000000E+00
  0.00000000E+00  0.00000000E+00  0.00000000E+00
  0.00000000E+00  0.00000000E+00  0.00000000E+00
  0.00000000E+00  0.00000000E+00  0.00000000E+00
  0.00000000E+00  0.00000000E+00  0.00000000E+00
  0.00000000E+00  0.00000000E+00  0.00000000E+00
  0.00000000E+00  0.00000000E+00  0.00000000E+00
  0.00000000E+00  0.00000000E+00  0.00000000E+00
  0.00000000E+00  0.00000000E+00  0.00000000E+00
  0.00000000E+00  0.00000000E+00  0.00000000E+00
  0.00000000E+00  0.00000000E+00  0.00000000E+00
  0.00000000E+00  0.00000000E+00  0.00000000E+00
  0.00000000E+00  0.00000000E+00  0.00000000E+00
  0.00000000E+00  0.00000000E+00  0.00000000E+00
  0.00000000E+00  0.00000000E+00  0.00000000E+00
  0.00000000E+00  0.00000000E+00  0.00000000E+00
  0.00000000E+00  0.00000000E+00  0.00000000E+00
  0.00000000E+00  0.00000000E+00  0.00000000E+00
  0.00000000E+00  0.00000000E+00  0.00000000E+00
  0.00000000E+00  0.00000000E+00  0.00000000E+00
  0.00000000E+00  0.00000000E+00  0.00000000E+00
  0.00000000E+00  0.00000000E+00  0.00000000E+00
  0.00000000E+00  0.00000000E+00  0.00000000E+00
  0.00000000E+00  0.00000000E+00  0.00000000E+00
  0.00000000E+00  0.00000000E+00  0.00000000E+00
  0.00000000E+00  0.00000000E+00  0.00000000E+00
  0.00000000E+00  0.00000000E+00  0.00000000E+00
  0.00000000E+00  0.00000000E+00  0.00000000E+00
  0.00000000E+00  0.00000000E+00  0.00000000E+00
  0.00000000E+00  0.00000000E+00  0.00000000E+00
  0.00000000E+00  0.00000000E+00  0.00000000E+00
  0.00000000E+00  0.00000000E+00  0.00000000E+00
  0.00000000E+00  0.00000000E+00  0.00000000E+00
  0.00000000E+00  0.00000000E+00  0.00000000E+00
  0.00000000E+00  0.00000000E+00  0.00000000E+00
  0.00000000E+00  0.00000000E+00  0.00000000E+00
  0.00000000E+00  0.00000000E+00  0.00000000E+00
  0.00000000E+00  0.00000000E+00  0.00000000E+00
  0.00000000E+00  0.00000000E+00  0.00000000E+00
  0.00000000E+00  0.00000000E+00  0.00000000E+00
  0.00000000E+00  0.00000000E+00  0.00000000E+00
  0.00000000E+00  0.00000000E+00  0.00000000E+00
  0.00000000E+00  0.00000000E+00  0.00000000E+00
  0.00000000E+00  0.00000000E+00  0.00000000E+00
  0.00000000E+00  0.00000000E+00  0.00000000E+00
  0.00000000E+00  0.00000000E+00  0.00000000E+00
  0.00000000E+00  0.00000000E+00  0.00000000E+00
  0.00000000E+00  0.00000000E+00  0.00000000E+00
  0.00000000E+00  0.00000000E+00  0.00000000E+00
  0.00000000E+00  0.00000000E+00  0.00000000E+00
  0.00000000E+00  0.00000000E+00  0.00000000E+00
  0.00000000E+00  0.00000000E+00  0.00000000E+00
  0.00000000E+00  0.00000000E+00  0.00000000E+00
  0.00000000E+00  0.00000000E+00  0.00000000E+00
  0.00000000E+00  0.00000000E+00  0.00000000E+00
  0.00000000E+00  0.00000000E+00  0.00000000E+00
  0.00000000E+00  0.00000000E+00  0.00000000E+00
  0.00000000E+00  0.00000000E+00  0.00000000E+00
  0.00000000E+00  0.00000000E+00  0.00000000E+00
  0.00000000E+00  0.00000000E+00  0.00000000E+00
  0.00000000E+00  0.00000000E+00  0.00000000E+00
  0.00000000E+00  0.00000000E+00  0.00000000E+00
  0.00000000E+00  0.00000000E+00  0.00000000E+00
  0.00000000E+00  0.00000000E+00  0.00000000E+00
  0.00000000E+00  0.00000000E+00  0.00000000E+00
  0.00000000E+00  0.00000000E+00  0.00000000E+00
  0.00000000E+00  0.00000000E+00  0.00000000E+00
  0.00000000E+00  0.00000000E+00  0.00000000E+00
  0.00000000E+00  0.00000000E+00  0.00000000E+00
  0.00000000E+00  0.00000000E+00  0.00000000E+00
  0.00000000E+00  0.00000000E+00  0.00000000E+00
  0.00000000E+00  0.00000000E+00  0.00000000E+00
  0.00000000E+00  0.00000000E+00  0.00000000E+00
  0.00000000E+00  0.00000000E+00  0.00000000E+00
  0.00000000E+00  0.00000000E+00  0.00000000E+00
  0.00000000E+00  0.00000000E+00  0.00000000E+00
  0.00000000E+00  0.00000000E+00  0.00000000E+00
  0.00000000E+00  0.00000000E+00  0.00000000E+00
  0.00000000E+00  0.00000000E+00  0.00000000E+00
  0.00000000E+00  0.00000000E+00  0.00000000E+00
  0.00000000E+00  0.00000000E+00  0.00000000E+00
  0.00000000E+00  0.00000000E+00  0.00000000E+00
  0.00000000E+00  0.00000000E+00  0.00000000E+00
  0.00000000E+00  0.00000000E+00  0.00000000E+00
  0.00000000E+00  0.00000000E+00  0.00000000E+00
  0.00000000E+00  0.00000000E+00  0.00000000E+00
  0.00000000E+00  0.00000000E+00  0.00000000E+00
  0.00000000E+00  0.00000000E+00  0.00000000E+00
  0.00000000E+00  0.00000000E+00  0.00000000E+00
  0.00000000E+00  0.00000000E+00  0.00000000E+00
  0.00000000E+00  0.00000000E+00  0.00000000E+00
  0.00000000E+00  0.00000000E+00  0.00000000E+00
  0.00000000E+00  0.00000000E+00  0.00000000E+00
  0.00000000E+00  0.00000000E+00  0.00000000E+00
  0.00000000E+00  0.00000000E+00  0.00000000E+00
  0.00000000E+00  0.00000000E+00  0.00000000E+00
  0.00000000E+00  0.00000000E+00  0.00000000E+00
  0.00000000E+00  0.00000000E+00  0.00000000E+00
  0.00000000E+00  0.00000000E+00  0.00000000E+00
  0.00000000E+00  0.00000000E+00  0.00000000E+00
  0.00000000E+00  0.00000000E+00  0.00000000E+00
  0.00000000E+00  0.00000000E+00  0.00000000E+00
  0.00000000E+00  0.00000000E+00  0.00000000E+00
  0.00000000E+00  0.00000000E+00  0.00000000E+00
  0.00000000E+00  0.00000000E+00  0.00000000E+00
  0.00000000E+00  0.00000000E+00  0.00000000E+00
  0.00000000E+00  0.00000000E+00  0.00000000E+00
  0.00000000E+00  0.00000000E+00  0.00000000E+00
  0.00000000E+00  0.00000000E+00  0.00000000E+00
  0.00000000E+00  0.00000000E+00  0.00000000E+00
  0.00000000E+00  0.00000000E+00  0.00000000E+00
  0.00000000E+00  0.00000000E+00  0.00000000E+00
  0.00000000E+00  0.00000000E+00  0.00000000E+00
  0.00000000E+00  0.00000000E+00  0.00000000E+00
  0.00000000E+00  0.00000000E+00  0.00000000E+00
  0.00000000E+00  0.00000000E+00  0.00000000E+00
  0.00000000E+00  0.00000000E+00  0.00000000E+00
  0.00000000E+00  0.00000000E+00  0.00000000E+00
  0.00000000E+00  0.00000000E+00  0.00000000E+00
  0.00000000E+00  0.00000000E+00  0.00000000E+00
  0.00000000E+00  0.00000000E+00  0.00000000E+00
  0.00000000E+00  0.00000000E+00  0.00000000E+00
  0.00000000E+00  0.00000000E+00  0.00000000E+00
  0.00000000E+00  0.00000000E+00  0.00000000E+00
  0.00000000E+00  0.00000000E+00  0.00000000E+00
  0.00000000E+00  0.00000000E+00  0.00000000E+00
  0.00000000E+00  0.00000000E+00  0.00000000E+00
  0.00000000E+00  0.00000000E+00  0.00000000E+00
  0.00000000E+00  0.00000000E+00  0.00000000E+00
  0.00000000E+00  0.00000000E+00  0.00000000E+00
  0.00000000E+00  0.00000000E+00  0.00000000E+00
  0.00000000E+00  0.00000000E+00  0.00000000E+00
  0.00000000E+00  0.00000000E+00  0.00000000E+00
  0.00000000E+00  0.00000000E+00  0.00000000E+00
  0.00000000E+00  0.00000000E+00  0.00000000E+00
  0.00000000E+00  0.00000000E+00  0.00000000E+00
  0.00000000E+00  0.00000000E+00  0.00000000E+00
  0.00000000E+00  0.00000000E+00  0.00000000E+00
  0.00000000E+00  0.00000000E+00  0.00000000E+00
  0.00000000E+00  0.00000000E+00  0.00000000E+00
  0.00000000E+00  0.00000000E+00  0.00000000E+00
  0.00000000E+00  0.00000000E+00  0.00000000E+00
  0.00000000E+00  0.00000000E+00  0.00000000E+00
  0.00000000E+00  0.00000000E+00  0.00000000E+00
  0.00000000E+00  0.00000000E+00  0.00000000E+00
  0.00000000E+00  0.00000000E+00  0.00000000E+00
  0.00000000E+00  0.00000000E+00  0.00000000E+00
  0.00000000E+00  0.00000000E+00  0.00000000E+00
  0.00000000E+00  0.00000000E+00  0.00000000E+00
  0.00000000E+00  0.00000000E+00  0.00000000E+00
  0.00000000E+00  0.00000000E+00  0.00000000E+00
  0.00000000E+00  0.00000000E+00  0.00000000E+00
  0.00000000E+00  0.00000000E+00  0.00000000E+00
  0.00000000E+00  0.00000000E+00  0.00000000E+00
  0.00000000E+00  0.00000000E+00  0.00000000E+00
  0.00000000E+00  0.00000000E+00  0.00000000E+00
  0.00000000E+00  0.00000000E+00  0.00000000E+00
  0.00000000E+00  0.00000000E+00  0.00000000E+00
  0.00000000E+00  0.00000000E+00  0.00000000E+00
  0.00000000E+00  0.00000000E+00  0.00000000E+00
  0.00000000E+00  0.00000000E+00  0.00000000E+00
  0.00000000E+00  0.00000000E+00  0.00000000E+00
  0.00000000E+00  0.00000000E+00  0.00000000E+00
  0.00000000E+00  0.00000000E+00  0.00000000E+00
  0.00000000E+00  0.00000000E+00  0.00000000E+00
  0.00000000E+00  0.00000000E+00  0.00000000E+00
  0.00000000E+00  0.00000000E+00  0.00000000E+00
  0.00000000E+00  0.00000000E+00  0.00000000E+00
  0.00000000E+00  0.00000000E+00  0.00000000E+00
  0.00000000E+00  0.00000000E+00  0.00000000E+00
  0.00000000E+00  0.00000000E+00  0.00000000E+00
  0.00000000E+00  0.00000000E+00  0.00000000E+00
  0.00000000E+00  0.00000000E+00  0.00000000E+00
  0.00000000E+00  0.00000000E+00  0.00000000E+00
  0.00000000E+00  0.00000000E+00  0.00000000E+00
  0.00000000E+00  0.00000000E+00  0.00000000E+00
  0.00000000E+00  0.00000000E+00  0.00000000E+00
  0.00000000E+00  0.00000000E+00  0.00000000E+00
  0.00000000E+00  0.00000000E+00  0.00000000E+00
  0.00000000E+00  0.00000000E+00  0.00000000E+00
