fcc:                                    
   1.00000000000000     
    13.1711167849560002    0.0000000000000000    0.0000000000000000
     0.0000000000000000   13.1711167849560002    0.0000000000000000
     0.0000000000000000    0.0000000000000000   13.1711167849560002
   Ti   O 
    72   143
Direct
  0.3536452903801365  0.9267765515053564  0.6889024170870880
  0.2040421584341917  0.0028396726784721  0.3165605398234688
  0.1696083775663104  0.4804714532231223  0.1675362165016605
  0.6076858792394653  0.9170109402233819  0.7553903286275393
  0.7328313385028240  0.8339344072413708  0.3955809496866266
  0.3744179910627778  0.4873214229295757  0.9678219947311303
  0.9348934352265209  0.3456719781378757  0.4158030321958077
  0.5875676067980913  0.6417363866873589  0.4058240837730140
  0.9378294792785453  0.7145056200965474  0.5079670060010004
  0.6263213586164704  0.0567459990309395  0.5240499321043850
  0.8320634999771823  0.2133663023610300  0.5794753676011962
  0.0381214747938989  0.7607993328383182  0.2916433323349722
  0.2381213542476102  0.7309707748699458  0.1007556586867938
  0.2411390506420725  0.0062497003908442  0.0826213926336660
  0.4349506558312036  0.0594900599065467  0.3079539093208767
  0.5821317515829282  0.0184672279629736  0.1248664529705333
  0.4761469773551541  0.8002717467700942  0.2474559108001734
  0.5793594572121876  0.6486471714140331  0.8185782809991237
  0.8058530785978455  0.0994003290777573  0.3564500894293222
  0.8337837086090818  0.3509626842269365  0.9731713523608287
  0.6225732662349064  0.2344751340670771  0.2952594854056051
  0.9240424303827675  0.1858816602074909  0.7934256439439433
  0.2718985445786005  0.7563733450378211  0.3684055157335795
  0.0827907785489892  0.3583532907627811  0.8467782254240495
  0.3783644529980447  0.5709524549335758  0.2349987908281833
  0.5140352143587620  0.8682368121592010  0.4654754731681752
  0.9301522410105082  0.9535183586829391  0.8930539543362963
  0.7954465549659696  0.7786132950250959  0.7478803301703649
  0.4962976415341319  0.1467419608277568  0.6978151486394794
  0.7850333467575709  0.6133104979088587  0.9739114956177923
  0.4660540543800435  0.4364327117817966  0.7055533221379047
  0.9406040727544748  0.5692094373107822  0.8354733927293925
  0.3454679354034846  0.2680323638000155  0.8231807007327252
  0.8263560950941766  0.8937267951116127  0.1953098769967299
  0.4710483394027191  0.2827672413627675  0.4879735756696109
  0.1244666492009199  0.8840594196170601  0.5432786971721396
  0.6995583320289869  0.3333420997642220  0.7221855479598234
  0.0104703588432433  0.7480502283970049  0.0574458846417495
  0.8114830545821181  0.5618676201684821  0.3775199268037188
  0.0647618015376328  0.8153032472523496  0.7966194593953450
  0.2463902210462640  0.2896650988473917  0.0618000990841589
  0.8173832052897264  0.0925721975024881  0.0381776172386630
  0.5980823609675439  0.4366653883893297  0.1566797866033626
  0.1089152520892622  0.5525925959251443  0.4137490971449618
  0.6875230829332531  0.6710929435635987  0.1735224879451668
  0.2673898013993318  0.0929408716992689  0.5459555336925578
  0.4950613461537413  0.6741280905207120  0.0307671795058925
  0.3788285886220216  0.3364071273568678  0.2809347436809803
  0.6774889123534215  0.8587729889278507  0.9884101961429815
  0.8586160291774636  0.9935293810728660  0.6394278456512629
  0.3012882490120426  0.8514357323541369  0.9143422782092756
  0.9328313855203312  0.5450184105825218  0.1445297191728832
  0.6685630433837301  0.4061811400920726  0.5060031239829970
  0.9742068433646087  0.4884597926128980  0.5970079854557098
  0.0763076070819776  0.2128293896610437  0.6095262991514464
  0.2100092282216016  0.4464444229331022  0.6710833660220332
  0.0799221472756913  0.1470882212219592  0.0014775226372360
  0.4539973794533306  0.7206862466389086  0.6393671839739525
  0.8283442847973529  0.3244326321492773  0.1973017857499083
  0.4781649098414132  0.2527709657226745  0.0551970774098743
  0.2277031781851053  0.3095170670949336  0.4606802985105789
  0.7603505107165932  0.5910757570390386  0.6190781984500077
  0.0971052029960364  0.2553222792543373  0.2699658094047027
  0.4719592526202677  0.0251646204109145  0.9194413657148873
  0.6652677076396913  0.1702297478015193  0.8886930744834757
  0.6055514317963354  0.4206860093188836  0.9274515700003992
  0.1642417446175779  0.0594016696454669  0.8074240485178490
  0.1639412442416996  0.6194882582894984  0.8719115796063990
  0.0053661707572295  0.0503278255099041  0.2060246011419504
  0.3611651933993838  0.5274494558269721  0.4827742873286700
  0.2202769505931680  0.6953641296922055  0.6324226333697137
  0.9581890435586792  0.9500978797576412  0.4291947847768555
  0.4599234342485833  0.2204290682066781  0.3474956536369386
  0.7965040571004601  0.4164781400476660  0.4267137031604760
  0.1063695423728068  0.9869323154099122  0.4391741004859141
  0.9627983636618707  0.8926349185889098  0.2828142814866244
  0.1582694273716859  0.0337785954206105  0.9583316540032232
  0.6558739891144930  0.9117905157687977  0.4975037538622583
  0.7253186765710147  0.3337683361804244  0.8703493220144688
  0.9477589397493589  0.1367792529676449  0.6357664355942654
  0.7013577007140117  0.3793565124541164  0.2423535935646174
  0.4977756381778754  0.4101318741465705  0.0351659590476918
  0.9958720834334905  0.4721666009579543  0.4519015550032238
  0.8315534420041699  0.2717594830907432  0.7204688564767008
  0.7665488209988510  0.9604714736932367  0.3211470396022360
  0.9696283690056945  0.6774501316577878  0.1919313859563822
  0.8095933009831749  0.1633616573250622  0.9008298178248845
  0.0123007390379143  0.8377055793423035  0.9391084472105785
  0.3190423531727281  0.6129982604930329  0.3696144722690730
  0.0221219913731943  0.1748947162366787  0.1377850382528344
  0.7019989891665303  0.8442947245108616  0.8455020715446847
  0.3380433556370254  0.2217741213479510  0.5206151963841741
  0.7431452423461689  0.9016784325286948  0.6754201541825504
  0.6706909513112861  0.5508679513642947  0.5009502010452551
  0.8599903639536385  0.8376045237226509  0.4620287679482171
  0.9134666864010238  0.8498079396193308  0.7760679360394647
  0.8009321560514743  0.9553764411844973  0.9621823520689312
  0.7869618158790904  0.5795515885541078  0.1191476516030243
  0.9464531293446485  0.3327441926005252  0.5659974329436042
  0.7355009109891286  0.6974594401168950  0.4372912693325892
  0.4558692989492910  0.9285215915432349  0.8081270112119754
  0.9596398593324250  0.0527945580268662  0.0000031014912672
  0.6856139739207220  0.5845107302265371  0.2954183135984639
  0.8667402144362849  0.5739334627018746  0.5207214131081210
  0.4932423638395220  0.5392829959802531  0.4447776412984665
  0.5074100470197941  0.0110094407899787  0.4388219119554023
  0.8251204341460445  0.2394125732600542  0.0763127769461663
  0.8379189005656643  0.6776541399332526  0.8528989889144285
  0.8812521608650871  0.4939525710896469  0.2730229354724444
  0.3648386314815375  0.2709653000571907  0.1540610323287462
  0.2080193663556890  0.4767189318978114  0.4894708985722963
  0.2263079756476150  0.7784915740021683  0.5026081138573745
  0.1745967380306264  0.3224941618144687  0.6000950947562220
  0.4797411715044693  0.4495888707797965  0.2443416545455375
  0.3509468470716142  0.9791686792694070  0.9800605062232296
  0.5902772365868646  0.4179374418774904  0.7782543034116416
  0.9356613932496738  0.6632393227494331  0.3734474244897030
  0.9485666814578086  0.0739055210257397  0.3393439777595044
  0.3749309976783586  0.0711619392044767  0.6519033203306220
  0.7650063473254028  0.7736945940377579  0.2521779832603559
  0.4901531196034246  0.9394812446274875  0.2121705747032672
  0.5698148918331259  0.0186738064476726  0.6590508647891750
  0.5896949448040325  0.8018593581189928  0.3485175242893200
  0.9845665112858528  0.9371320520163473  0.5839957009877118
  0.6741623815491716  0.1081061927805277  0.0335222024569028
  0.0574958119009503  0.5065321749885697  0.0933075068725236
  0.2353614158476023  0.6082617130626452  0.1763922123619336
  0.8511024007436541  0.7208179030154824  0.6287998675338358
  0.4918923962822848  0.5717306074524898  0.9187444643331477
  0.7276545966500623  0.4538330006674192  0.6443859353768717
  0.2624188761778085  0.9498023244589537  0.8009298771844383
  0.4432679114773579  0.1418693468042795  0.8365405071541417
  0.3073698057432963  0.0462661184679818  0.4075251481885841
  0.8912449003639661  0.4069615203728851  0.0960660062621359
  0.9348950888768890  0.6329556693440653  0.0066803767855555
  0.0573228289315097  0.6204479539316480  0.5522554060813932
  0.1568296226103852  0.1064239302548449  0.6636094810481209
  0.9468970829248652  0.2975068199364773  0.2746605345605193
  0.2901760608330849  0.5773622626165822  0.9050471418857049
  0.5710956304330471  0.1039813036207059  0.2420371509627320
  0.4909924574534114  0.5892021449089410  0.7127501603838807
  0.6728311555882284  0.5599729900235974  0.8988019826932153
  0.3993962287477975  0.8325949423382113  0.3786308117908328
  0.5504168402982671  0.7771094804566558  0.7365116434869777
  0.3694961768064075  0.3812464297945898  0.4298355492738972
  0.8488005727992528  0.0277321359683667  0.4880163365882669
  0.0798727512009300  0.3082312321759502  0.4045284964265268
  0.1200699354526448  0.1176887064458149  0.2912458233425918
  0.2474548253767586  0.9499549287051906  0.5884897002975641
  0.3685349465116453  0.7517743071540145  0.9937454827394653
  0.9465890102536703  0.3086689835110758  0.8947235184040154
  0.2624272912989140  0.4343680377778388  0.0458675181347300
  0.8858025535959322  0.5363323716115411  0.7060069811130312
  0.0445271012173262  0.1374323309409228  0.8577392910471376
  0.5938176335396740  0.5778009923511152  0.1052838374967873
  0.5513979309534985  0.9314319498162689  0.0048571218355108
  0.1149629911718129  0.7801233753945643  0.1630180186021249
  0.1590845245241125  0.1727501102020749  0.4915658522994303
  0.7485473823052470  0.0969970698578452  0.6166727888696957
  0.1329376061987242  0.2842972720262539  0.9629293245592370
  0.1489527234861667  0.3316872319293573  0.1629509439426180
  0.4480929970599193  0.8698962865709484  0.5919870812642738
  0.3583494840773506  0.2722313067116814  0.9677513720442583
  0.6728617754673645  0.1346469518900860  0.4125494880002386
  0.3103034148675388  0.0235137092723037  0.2133183775747794
  0.2198423386715134  0.8638895688535702  0.0307773902856314
  0.1421152790622996  0.6771024190969251  0.3460700574554311
  0.6162934084024854  0.0353602050189196  0.8523082351526295
  0.2967002217279127  0.4503012794673326  0.2524750274840434
  0.0602861963114040  0.9574695308849119  0.7965311798150482
  0.2478448149786875  0.1727732624046490  0.8230165607327733
  0.6946871542352805  0.4084472541269452  0.0396825351499313
  0.6975068732594499  0.9268939489285042  0.1254380702847997
  0.8587561304712631  0.2202646771764329  0.4384402849575202
  0.8794016556933766  0.0408745283944365  0.7788333201431481
  0.5692144825531846  0.2664720845702814  0.9418075969412125
  0.3986255398672965  0.5794653234261008  0.0892555522975505
  0.3528986087775396  0.6429754405591618  0.5671679798659109
  0.2225169792791626  0.3701457674695656  0.7929914062359118
  0.5365191447500380  0.1751309378927282  0.5574942453335190
  0.0651031231925909  0.4560995708326308  0.6968865851728206
  0.1214115477956983  0.9794647098938268  0.1638545227059125
  0.5626281885871574  0.7618864819100167  0.1330585198883121
  0.8600764905996198  0.0411814420324598  0.1684383693390486
  0.2124725540087004  0.1510672779006500  0.0836143296829305
  0.6246114557792468  0.2083276718438829  0.7505542594599331
  0.9109629056480417  0.8436653557371728  0.0992938042876612
  0.5721296973240572  0.7436206246231934  0.9309114319512926
  0.5337009973357839  0.3884078527818055  0.5794376818990805
  0.8527254886133175  0.4871772667932855  0.9179329230474935
  0.3347358785532155  0.7774675379764451  0.7081277768816505
  0.7603771323147429  0.1986472337650048  0.2576227980041433
  0.4948474045156395  0.6525705925673376  0.2850536193391807
  0.1911383470657572  0.8601354646709490  0.3156414721148979
  0.1968548365092146  0.7677305898845680  0.8475128774146433
  0.4810689218254624  0.1082817206993473  0.0499537397282913
  0.7369236944958841  0.7386228377940739  0.0395086581838792
  0.5403413502888813  0.7242305907002252  0.5190576358873893
  0.3417540597971433  0.7564325946374860  0.2094344381450855
  0.5643540875176267  0.2839668666886399  0.1674030689254251
  0.2476229774873702  0.2698476157855320  0.3222968081982368
  0.4045076278102992  0.4135685407341591  0.8392197899684052
  0.7072565238815638  0.2849274619738796  0.5769392552525054
  0.0409738458327129  0.2719346350287110  0.7372009717937602
  0.6935619751925316  0.6607462712385969  0.7226984378310741
  0.2096369673643032  0.5830649606592839  0.7256598821952387
  0.0381426785962943  0.8079071384855043  0.4467862491372140
  0.0679356032608582  0.4981934085632800  0.8854633419612926
  0.4263828115329151  0.2792831233417720  0.7017761958886597
  0.5946637404674694  0.3297093655828980  0.4068130859482839
  0.1000844211048613  0.4860939064813701  0.2924551903625691
  0.1386934889976531  0.6742374743594097  0.0063987062019032
  0.3476726035452348  0.4554196540688460  0.6234422880413705
  0.1077767832645483  0.7979797334317412  0.6591075063560430
  0.0354433245142294  0.6710418642732180  0.8043503227929505
 
  0.00000000E+00  0.00000000E+00  0.00000000E+00
  0.00000000E+00  0.00000000E+00  0.00000000E+00
  0.00000000E+00  0.00000000E+00  0.00000000E+00
  0.00000000E+00  0.00000000E+00  0.00000000E+00
  0.00000000E+00  0.00000000E+00  0.00000000E+00
  0.00000000E+00  0.00000000E+00  0.00000000E+00
  0.00000000E+00  0.00000000E+00  0.00000000E+00
  0.00000000E+00  0.00000000E+00  0.00000000E+00
  0.00000000E+00  0.00000000E+00  0.00000000E+00
  0.00000000E+00  0.00000000E+00  0.00000000E+00
  0.00000000E+00  0.00000000E+00  0.00000000E+00
  0.00000000E+00  0.00000000E+00  0.00000000E+00
  0.00000000E+00  0.00000000E+00  0.00000000E+00
  0.00000000E+00  0.00000000E+00  0.00000000E+00
  0.00000000E+00  0.00000000E+00  0.00000000E+00
  0.00000000E+00  0.00000000E+00  0.00000000E+00
  0.00000000E+00  0.00000000E+00  0.00000000E+00
  0.00000000E+00  0.00000000E+00  0.00000000E+00
  0.00000000E+00  0.00000000E+00  0.00000000E+00
  0.00000000E+00  0.00000000E+00  0.00000000E+00
  0.00000000E+00  0.00000000E+00  0.00000000E+00
  0.00000000E+00  0.00000000E+00  0.00000000E+00
  0.00000000E+00  0.00000000E+00  0.00000000E+00
  0.00000000E+00  0.00000000E+00  0.00000000E+00
  0.00000000E+00  0.00000000E+00  0.00000000E+00
  0.00000000E+00  0.00000000E+00  0.00000000E+00
  0.00000000E+00  0.00000000E+00  0.00000000E+00
  0.00000000E+00  0.00000000E+00  0.00000000E+00
  0.00000000E+00  0.00000000E+00  0.00000000E+00
  0.00000000E+00  0.00000000E+00  0.00000000E+00
  0.00000000E+00  0.00000000E+00  0.00000000E+00
  0.00000000E+00  0.00000000E+00  0.00000000E+00
  0.00000000E+00  0.00000000E+00  0.00000000E+00
  0.00000000E+00  0.00000000E+00  0.00000000E+00
  0.00000000E+00  0.00000000E+00  0.00000000E+00
  0.00000000E+00  0.00000000E+00  0.00000000E+00
  0.00000000E+00  0.00000000E+00  0.00000000E+00
  0.00000000E+00  0.00000000E+00  0.00000000E+00
  0.00000000E+00  0.00000000E+00  0.00000000E+00
  0.00000000E+00  0.00000000E+00  0.00000000E+00
  0.00000000E+00  0.00000000E+00  0.00000000E+00
  0.00000000E+00  0.00000000E+00  0.00000000E+00
  0.00000000E+00  0.00000000E+00  0.00000000E+00
  0.00000000E+00  0.00000000E+00  0.00000000E+00
  0.00000000E+00  0.00000000E+00  0.00000000E+00
  0.00000000E+00  0.00000000E+00  0.00000000E+00
  0.00000000E+00  0.00000000E+00  0.00000000E+00
  0.00000000E+00  0.00000000E+00  0.00000000E+00
  0.00000000E+00  0.00000000E+00  0.00000000E+00
  0.00000000E+00  0.00000000E+00  0.00000000E+00
  0.00000000E+00  0.00000000E+00  0.00000000E+00
  0.00000000E+00  0.00000000E+00  0.00000000E+00
  0.00000000E+00  0.00000000E+00  0.00000000E+00
  0.00000000E+00  0.00000000E+00  0.00000000E+00
  0.00000000E+00  0.00000000E+00  0.00000000E+00
  0.00000000E+00  0.00000000E+00  0.00000000E+00
  0.00000000E+00  0.00000000E+00  0.00000000E+00
  0.00000000E+00  0.00000000E+00  0.00000000E+00
  0.00000000E+00  0.00000000E+00  0.00000000E+00
  0.00000000E+00  0.00000000E+00  0.00000000E+00
  0.00000000E+00  0.00000000E+00  0.00000000E+00
  0.00000000E+00  0.00000000E+00  0.00000000E+00
  0.00000000E+00  0.00000000E+00  0.00000000E+00
  0.00000000E+00  0.00000000E+00  0.00000000E+00
  0.00000000E+00  0.00000000E+00  0.00000000E+00
  0.00000000E+00  0.00000000E+00  0.00000000E+00
  0.00000000E+00  0.00000000E+00  0.00000000E+00
  0.00000000E+00  0.00000000E+00  0.00000000E+00
  0.00000000E+00  0.00000000E+00  0.00000000E+00
  0.00000000E+00  0.00000000E+00  0.00000000E+00
  0.00000000E+00  0.00000000E+00  0.00000000E+00
  0.00000000E+00  0.00000000E+00  0.00000000E+00
  0.00000000E+00  0.00000000E+00  0.00000000E+00
  0.00000000E+00  0.00000000E+00  0.00000000E+00
  0.00000000E+00  0.00000000E+00  0.00000000E+00
  0.00000000E+00  0.00000000E+00  0.00000000E+00
  0.00000000E+00  0.00000000E+00  0.00000000E+00
  0.00000000E+00  0.00000000E+00  0.00000000E+00
  0.00000000E+00  0.00000000E+00  0.00000000E+00
  0.00000000E+00  0.00000000E+00  0.00000000E+00
  0.00000000E+00  0.00000000E+00  0.00000000E+00
  0.00000000E+00  0.00000000E+00  0.00000000E+00
  0.00000000E+00  0.00000000E+00  0.00000000E+00
  0.00000000E+00  0.00000000E+00  0.00000000E+00
  0.00000000E+00  0.00000000E+00  0.00000000E+00
  0.00000000E+00  0.00000000E+00  0.00000000E+00
  0.00000000E+00  0.00000000E+00  0.00000000E+00
  0.00000000E+00  0.00000000E+00  0.00000000E+00
  0.00000000E+00  0.00000000E+00  0.00000000E+00
  0.00000000E+00  0.00000000E+00  0.00000000E+00
  0.00000000E+00  0.00000000E+00  0.00000000E+00
  0.00000000E+00  0.00000000E+00  0.00000000E+00
  0.00000000E+00  0.00000000E+00  0.00000000E+00
  0.00000000E+00  0.00000000E+00  0.00000000E+00
  0.00000000E+00  0.00000000E+00  0.00000000E+00
  0.00000000E+00  0.00000000E+00  0.00000000E+00
  0.00000000E+00  0.00000000E+00  0.00000000E+00
  0.00000000E+00  0.00000000E+00  0.00000000E+00
  0.00000000E+00  0.00000000E+00  0.00000000E+00
  0.00000000E+00  0.00000000E+00  0.00000000E+00
  0.00000000E+00  0.00000000E+00  0.00000000E+00
  0.00000000E+00  0.00000000E+00  0.00000000E+00
  0.00000000E+00  0.00000000E+00  0.00000000E+00
  0.00000000E+00  0.00000000E+00  0.00000000E+00
  0.00000000E+00  0.00000000E+00  0.00000000E+00
  0.00000000E+00  0.00000000E+00  0.00000000E+00
  0.00000000E+00  0.00000000E+00  0.00000000E+00
  0.00000000E+00  0.00000000E+00  0.00000000E+00
  0.00000000E+00  0.00000000E+00  0.00000000E+00
  0.00000000E+00  0.00000000E+00  0.00000000E+00
  0.00000000E+00  0.00000000E+00  0.00000000E+00
  0.00000000E+00  0.00000000E+00  0.00000000E+00
  0.00000000E+00  0.00000000E+00  0.00000000E+00
  0.00000000E+00  0.00000000E+00  0.00000000E+00
  0.00000000E+00  0.00000000E+00  0.00000000E+00
  0.00000000E+00  0.00000000E+00  0.00000000E+00
  0.00000000E+00  0.00000000E+00  0.00000000E+00
  0.00000000E+00  0.00000000E+00  0.00000000E+00
  0.00000000E+00  0.00000000E+00  0.00000000E+00
  0.00000000E+00  0.00000000E+00  0.00000000E+00
  0.00000000E+00  0.00000000E+00  0.00000000E+00
  0.00000000E+00  0.00000000E+00  0.00000000E+00
  0.00000000E+00  0.00000000E+00  0.00000000E+00
  0.00000000E+00  0.00000000E+00  0.00000000E+00
  0.00000000E+00  0.00000000E+00  0.00000000E+00
  0.00000000E+00  0.00000000E+00  0.00000000E+00
  0.00000000E+00  0.00000000E+00  0.00000000E+00
  0.00000000E+00  0.00000000E+00  0.00000000E+00
  0.00000000E+00  0.00000000E+00  0.00000000E+00
  0.00000000E+00  0.00000000E+00  0.00000000E+00
  0.00000000E+00  0.00000000E+00  0.00000000E+00
  0.00000000E+00  0.00000000E+00  0.00000000E+00
  0.00000000E+00  0.00000000E+00  0.00000000E+00
  0.00000000E+00  0.00000000E+00  0.00000000E+00
  0.00000000E+00  0.00000000E+00  0.00000000E+00
  0.00000000E+00  0.00000000E+00  0.00000000E+00
  0.00000000E+00  0.00000000E+00  0.00000000E+00
  0.00000000E+00  0.00000000E+00  0.00000000E+00
  0.00000000E+00  0.00000000E+00  0.00000000E+00
  0.00000000E+00  0.00000000E+00  0.00000000E+00
  0.00000000E+00  0.00000000E+00  0.00000000E+00
  0.00000000E+00  0.00000000E+00  0.00000000E+00
  0.00000000E+00  0.00000000E+00  0.00000000E+00
  0.00000000E+00  0.00000000E+00  0.00000000E+00
  0.00000000E+00  0.00000000E+00  0.00000000E+00
  0.00000000E+00  0.00000000E+00  0.00000000E+00
  0.00000000E+00  0.00000000E+00  0.00000000E+00
  0.00000000E+00  0.00000000E+00  0.00000000E+00
  0.00000000E+00  0.00000000E+00  0.00000000E+00
  0.00000000E+00  0.00000000E+00  0.00000000E+00
  0.00000000E+00  0.00000000E+00  0.00000000E+00
  0.00000000E+00  0.00000000E+00  0.00000000E+00
  0.00000000E+00  0.00000000E+00  0.00000000E+00
  0.00000000E+00  0.00000000E+00  0.00000000E+00
  0.00000000E+00  0.00000000E+00  0.00000000E+00
  0.00000000E+00  0.00000000E+00  0.00000000E+00
  0.00000000E+00  0.00000000E+00  0.00000000E+00
  0.00000000E+00  0.00000000E+00  0.00000000E+00
  0.00000000E+00  0.00000000E+00  0.00000000E+00
  0.00000000E+00  0.00000000E+00  0.00000000E+00
  0.00000000E+00  0.00000000E+00  0.00000000E+00
  0.00000000E+00  0.00000000E+00  0.00000000E+00
  0.00000000E+00  0.00000000E+00  0.00000000E+00
  0.00000000E+00  0.00000000E+00  0.00000000E+00
  0.00000000E+00  0.00000000E+00  0.00000000E+00
  0.00000000E+00  0.00000000E+00  0.00000000E+00
  0.00000000E+00  0.00000000E+00  0.00000000E+00
  0.00000000E+00  0.00000000E+00  0.00000000E+00
  0.00000000E+00  0.00000000E+00  0.00000000E+00
  0.00000000E+00  0.00000000E+00  0.00000000E+00
  0.00000000E+00  0.00000000E+00  0.00000000E+00
  0.00000000E+00  0.00000000E+00  0.00000000E+00
  0.00000000E+00  0.00000000E+00  0.00000000E+00
  0.00000000E+00  0.00000000E+00  0.00000000E+00
  0.00000000E+00  0.00000000E+00  0.00000000E+00
  0.00000000E+00  0.00000000E+00  0.00000000E+00
  0.00000000E+00  0.00000000E+00  0.00000000E+00
  0.00000000E+00  0.00000000E+00  0.00000000E+00
  0.00000000E+00  0.00000000E+00  0.00000000E+00
  0.00000000E+00  0.00000000E+00  0.00000000E+00
  0.00000000E+00  0.00000000E+00  0.00000000E+00
  0.00000000E+00  0.00000000E+00  0.00000000E+00
  0.00000000E+00  0.00000000E+00  0.00000000E+00
  0.00000000E+00  0.00000000E+00  0.00000000E+00
  0.00000000E+00  0.00000000E+00  0.00000000E+00
  0.00000000E+00  0.00000000E+00  0.00000000E+00
  0.00000000E+00  0.00000000E+00  0.00000000E+00
  0.00000000E+00  0.00000000E+00  0.00000000E+00
  0.00000000E+00  0.00000000E+00  0.00000000E+00
  0.00000000E+00  0.00000000E+00  0.00000000E+00
  0.00000000E+00  0.00000000E+00  0.00000000E+00
  0.00000000E+00  0.00000000E+00  0.00000000E+00
  0.00000000E+00  0.00000000E+00  0.00000000E+00
  0.00000000E+00  0.00000000E+00  0.00000000E+00
  0.00000000E+00  0.00000000E+00  0.00000000E+00
  0.00000000E+00  0.00000000E+00  0.00000000E+00
  0.00000000E+00  0.00000000E+00  0.00000000E+00
  0.00000000E+00  0.00000000E+00  0.00000000E+00
  0.00000000E+00  0.00000000E+00  0.00000000E+00
  0.00000000E+00  0.00000000E+00  0.00000000E+00
  0.00000000E+00  0.00000000E+00  0.00000000E+00
  0.00000000E+00  0.00000000E+00  0.00000000E+00
  0.00000000E+00  0.00000000E+00  0.00000000E+00
  0.00000000E+00  0.00000000E+00  0.00000000E+00
  0.00000000E+00  0.00000000E+00  0.00000000E+00
  0.00000000E+00  0.00000000E+00  0.00000000E+00
  0.00000000E+00  0.00000000E+00  0.00000000E+00
  0.00000000E+00  0.00000000E+00  0.00000000E+00
  0.00000000E+00  0.00000000E+00  0.00000000E+00
  0.00000000E+00  0.00000000E+00  0.00000000E+00
  0.00000000E+00  0.00000000E+00  0.00000000E+00
  0.00000000E+00  0.00000000E+00  0.00000000E+00
  0.00000000E+00  0.00000000E+00  0.00000000E+00
  0.00000000E+00  0.00000000E+00  0.00000000E+00
  0.00000000E+00  0.00000000E+00  0.00000000E+00
