fcc:                                    
   1.00000000000000     
    12.9844668419009999    0.0000000000000000    0.0000000000000000
     0.0000000000000000   12.9844668419009999    0.0000000000000000
     0.0000000000000000    0.0000000000000000   12.9844668419009999
   Ti   O 
    72   137
Direct
  0.6609015646529685  0.3709660414792089  0.0486556142823006
  0.8500081007117216  0.7749099710822618  0.8503596184972292
  0.8168378042453687  0.6580404752767338  0.0647987336815205
  0.4200770000388475  0.8029337842562760  0.0235474659914913
  0.3518289402581750  0.5624816974653510  0.0293075004111331
  0.0676548621324635  0.4898929957778312  0.7729972551973541
  0.0747651576180343  0.6638351078970838  0.0094718063534592
  0.9445702826204269  0.8858842388016210  0.0787115289548226
  0.8879443245831479  0.0174033929147011  0.8544655511381684
  0.3529335937692041  0.1084728160614948  0.1308628836334224
  0.7955755317945064  0.1809673732094902  0.6428523510669619
  0.3407067726571741  0.4569411840853005  0.7651114850650144
  0.9426043796003745  0.9704062801931717  0.6474469392779573
  0.1549810507987808  0.8199691633946053  0.4938612549331566
  0.1405876580536829  0.5097985182371543  0.1704836049117770
  0.2350526949182893  0.6153202746113494  0.5991096459008710
  0.1221306930950333  0.8450813189013865  0.8144000690076540
  0.6869264646361908  0.8153367672774280  0.3167113952569535
  0.4917594979013358  0.9020166017203574  0.2177140708388149
  0.5579364415139085  0.0619372918775550  0.7398209780491870
  0.1407497004296011  0.0839135631529444  0.9380399758404666
  0.4940222404464172  0.0319806475127701  0.4576144492254682
  0.2901795693797467  0.1886648183675972  0.3806177640880128
  0.6056609971503704  0.6319568998557022  0.9404117253561198
  0.5537019765248921  0.1564609114827336  0.2602945899191305
  0.3658321578876058  0.0095724573862059  0.8569424477499925
  0.2079755014246384  0.2671751061776805  0.7285844960729210
  0.6407807370775072  0.4094043891075274  0.2815019271277442
  0.7670713865673077  0.1105838127558016  0.0760665503989944
  0.0598158096430402  0.3188554392604439  0.3463941930895725
  0.2780729382525254  0.9471756538109252  0.3152789362017323
  0.5481805949871101  0.0477923614069491  0.9938721068233725
  0.7451512461098100  0.6108525751654075  0.6094689643110410
  0.3807739491414427  0.5133775126113485  0.3119444468119872
  0.4075141446570560  0.2119655764222007  0.6252086835219945
  0.0045054261698460  0.2687576774756555  0.0941760086754412
  0.1164092152711047  0.0866356612619728  0.1711736481511975
  0.6197892639549495  0.2725113066020270  0.4961491730234516
  0.7776001363805214  0.4981973158200868  0.8815811561054309
  0.2703605193504454  0.3988836515431214  0.4993367361671578
  0.8884595306476962  0.9911186451775570  0.2740856823464977
  0.4771683508617175  0.2529786799071019  0.8919925062021035
  0.9688521152563779  0.6975786789927877  0.6565814744196673
  0.0616768021716157  0.0630813644955557  0.4261144682541541
  0.8036307649925599  0.2359963683278392  0.2613009593447637
  0.6330930847763769  0.8579088128465437  0.5594341382172493
  0.1704919738997999  0.0453263235287083  0.6643541340556962
  0.9031328569896766  0.8140696791927919  0.4623774396165422
  0.2712323980985289  0.6694432017929298  0.8319977305064568
  0.2002732064214718  0.8900716015065315  0.0602056969641842
  0.0878301910013009  0.7994649275664921  0.2634959221149111
  0.9747202891886664  0.4550543867257401  0.9879168325935325
  0.5023622922830385  0.6314622829683949  0.6828685484710323
  0.7854965998705050  0.6192974559327737  0.3517844617642647
  0.4183895586651057  0.3219782672712423  0.1455354542021206
  0.4285056338777302  0.7632239187933206  0.4444684060232382
  0.6043798879291118  0.4030633582561144  0.6960395152409717
  0.7181988737847738  0.2278611820727941  0.8681807415584056
  0.8636781262838233  0.4048580384118603  0.6828400427080974
  0.0231212480514003  0.5566217396635754  0.4860486524288545
  0.5481099560501411  0.5444194049813134  0.4648713514929076
  0.6664219646710750  0.8449250625931999  0.0418032658554848
  0.2347656440257974  0.3319615056206488  0.9767892469497148
  0.3567273274611844  0.8592301201508444  0.6475949688359233
  0.9883724091120372  0.2299948491602170  0.8128763297004448
  0.5533745503283772  0.6184023817879599  0.1737381879629106
  0.7703023588768724  0.0314805391474408  0.4541403038625729
  0.5910966318518412  0.8203490245017214  0.7934681436357394
  0.8415370602756530  0.3795898839659900  0.4491441302923425
  0.0381877756108381  0.2751739208153108  0.5702698996810004
  0.2749159194909547  0.6850128664725612  0.2369814788615394
  0.9095333344379256  0.4817312534152294  0.2350201641620683
  0.7692921534903819  0.4744109408640824  0.3252174946464776
  0.9898100939624697  0.5463066687427697  0.6549971045875632
  0.3322423124512690  0.9017845686450603  0.9511592616192965
  0.7657173187023977  0.3542502767885307  0.9361488067484209
  0.9371225729847271  0.7011847742479986  0.9695965593309410
  0.2408857964233606  0.5319617784020358  0.2729236445572095
  0.1316554215682319  0.9267387624676059  0.9315734158943593
  0.1032090577448641  0.6855944637603706  0.5698184463802622
  0.6845609427731651  0.2198147455800127  0.0236797479850527
  0.5205705288610534  0.9680222271807912  0.8625031105123228
  0.2265178022918092  0.9287017259931323  0.5982338942606595
  0.2335083692113804  0.0412743525252109  0.0571013067176783
  0.9880107481118379  0.3113845051441494  0.9443616183430315
  0.0219347703582092  0.0581823975736838  0.2797352639381758
  0.6418630774041203  0.7364810437031890  0.6368431477337729
  0.5541073343497395  0.3025489394013905  0.2251647575667005
  0.2125330100063622  0.6052745289414804  0.0735457719412085
  0.3452500112400378  0.3202773210262762  0.6999313568238443
  0.1762646834805909  0.3285959318596616  0.5938633727696024
  0.8444969792007250  0.0535317375319950  0.5767322503450280
  0.4971778935913848  0.5871294102477632  0.0249723447398541
  0.0645352782802929  0.9600229889395722  0.7413801560589903
  0.3713609552610398  0.3806520806260342  0.2603640177332428
  0.9562409692456985  0.8646005171622467  0.2301472599948285
  0.0158516784336731  0.2045441478469310  0.4320788925334337
  0.8049934631569188  0.1126621462183406  0.9232625673726759
  0.3642667765014737  0.9731598316768808  0.1881881224235643
  0.8354266847692345  0.6937279273780861  0.7251772676083952
  0.1681974362629931  0.9253328151588582  0.2052737709901565
  0.2929076766764149  0.7891199974829237  0.1116540743219991
  0.0111238762345096  0.3574685614651607  0.7148607998143184
  0.6315084693510395  0.9916015207784736  0.4852815501941293
  0.3970029659909904  0.9754950260318217  0.7192526787330858
  0.5028716494046874  0.9239951475572229  0.0631306463237764
  0.9874452475419899  0.8407187147025307  0.5884568421455842
  0.4831922872564475  0.7589905806950663  0.1583025084093678
  0.7567627257479781  0.9488478888104533  0.3277231864686920
  0.3633274674638224  0.3361606226277221  0.8830800059671856
  0.2754954009506929  0.1469437357813071  0.6510438767819199
  0.0048114508413550  0.0962566149552652  0.8970822018535555
  0.1658565420683857  0.5992029256937079  0.7371986331981567
  0.3970983603596408  0.5886571069960325  0.1741633253426954
  0.7066859016241410  0.3241098728483684  0.6181154569177626
  0.6590421354142043  0.6775791119549377  0.2698169187856071
  0.7194547809672815  0.2897573145702116  0.3699246875490999
  0.1147925035289910  0.6649313502951110  0.2363907983987773
  0.5011427465309020  0.0993503661860371  0.5951060864522623
  0.9299598062358959  0.9607633331630837  0.4243854093971677
  0.5210715639848178  0.3112799845236720  0.6063319498803806
  0.5387681777702903  0.1763874068241694  0.4110381855232466
  0.8847190420351565  0.2805863779869928  0.5724662238605333
  0.3560009162344910  0.0476155953450230  0.4086245255747197
  0.8150611973930508  0.8047290169284992  0.0839133334283211
  0.6864477647230351  0.1352110218650232  0.7313807091777978
  0.1887857144896668  0.4015175664653991  0.7968898198377476
  0.8832276029538990  0.1903352122685083  0.1327360398747333
  0.4586562291153255  0.8939128574931621  0.5371285981803117
  0.0087425412302917  0.3994740957850428  0.4694936983197770
  0.5377221597791447  0.0144161151351393  0.3073612659373759
  0.4583473669021629  0.7785109236782241  0.7147541307851395
  0.9084160621428212  0.1035603220053155  0.7332326813731205
  0.4037238729221571  0.8646342097847123  0.3306041907515075
  0.1253979273815635  0.3956280097635088  0.0679726496765523
  0.5868442918172551  0.6558221552370691  0.8007597250639574
  0.4836243696896362  0.4811266947466340  0.7516266187358284
  0.1767837558723221  0.2204223807274101  0.8730628893639321
  0.7146949700853299  0.1613295547099433  0.5163204458336937
  0.7248198147794077  0.8401699457416416  0.8849017993285618
  0.3531086417087790  0.6214453515471504  0.7179481843969021
  0.6201394309321778  0.4834880997078886  0.1465405251177012
  0.5062954625610985  0.1168562194155974  0.1204584720703985
  0.9203472006010895  0.8985771328049426  0.9328230899258694
  0.5179824408362700  0.3224021444867181  0.0227030039761504
  0.1604661728969241  0.7323345626177080  0.9117398822335225
  0.4009354403412319  0.1888903504832193  0.2522057741098239
  0.6952246688981496  0.1385973949434861  0.2069390263993315
  0.3015342727935749  0.5311063407692532  0.8894621638806062
  0.0332935765905002  0.7772918676732951  0.4007860922357710
  0.5958487993601058  0.4031912723222832  0.4323717745698030
  0.4442073804507174  0.1607350261211345  0.7708000962270765
  0.2241887280983877  0.7963499424825010  0.3398465171674996
  0.9186110539477822  0.4748648822611745  0.8352948881983928
  0.2947136946143973  0.7485135955191381  0.5459593085171830
  0.0143725068025215  0.5627578032946143  0.1020856486029648
  0.7609809185785816  0.6484904300705527  0.9076942692490966
  0.2300405134633009  0.0416203757826621  0.8157099829288814
  0.9280847301221434  0.5732401536186097  0.3708889973584303
  0.7410544748038843  0.3452966655791138  0.1750920731680120
  0.3765668577542548  0.6601301779230863  0.3535953903007062
  0.3376155452946735  0.4255059030174714  0.0642113439552952
  0.6376491277701219  0.8723702745204946  0.1949488705219822
  0.5350512774201938  0.5291930372099288  0.3041945502432641
  0.8386246358231960  0.1193775914598045  0.3482913500893988
  0.6170699008962234  0.9339149780412758  0.6895932831749981
  0.1137468862174784  0.1803671654903512  0.0495714807621638
  0.0897046866622741  0.1788479619726731  0.6977429956888768
  0.8573387542028534  0.9105035410078804  0.7516609575098542
  0.3633902242943198  0.6985843875132829  0.9391091725346269
  0.3907837160191144  0.4689633565974679  0.4500137588875428
  0.6038173073214493  0.5294463042792229  0.6138307020700907
  0.5498104212432329  0.7784434141869520  0.9456705330628167
  0.9066052397997496  0.3300051360092682  0.3113885791074442
  0.1880337345660255  0.1361065949317217  0.4575784338062354
  0.6652440791084380  0.6786604832724252  0.0736755094654842
  0.0759620411146845  0.7968691212651956  0.0879092266446334
  0.2367648570807236  0.1030948497047597  0.2553267936891449
  0.8837028864951132  0.6815130908172975  0.5343921640769899
  0.7339253794388613  0.4843077172035260  0.7420710370297606
  0.4057625745102204  0.1130613544545313  0.9604311585965789
  0.3553906348379309  0.2617519777343139  0.4920375730185537
  0.8369056777283086  0.6146342664966676  0.1984299756234774
  0.7752559746608452  0.8719849428200851  0.5243347692342054
  0.0766915988921518  0.5411722333596120  0.9144434742158288
  0.0582875420455665  0.4474578915508842  0.2707022934251552
  0.8508169669528838  0.9956116976277832  0.1321161697908254
  0.8301231893478129  0.2705822408323629  0.7720509716172520
  0.4700756823777436  0.6493850223311962  0.5417301397422585
  0.9319634352066674  0.3870570736577194  0.1160973447202885
  0.5948351382356321  0.3163034683444047  0.8192141205242581
  0.6916726459269517  0.6173741249391221  0.4610187224980181
  0.8219134147386209  0.7630846912632839  0.3499303216169933
  0.0747398068266598  0.2366786643154349  0.2214917189687747
  0.1551813341507453  0.9519387292666841  0.4041195371224651
  0.0056948600565708  0.7621328557596813  0.7845020750671911
  0.0414231394399440  0.9995890020761971  0.0773589595139710
  0.2059004757094838  0.3240171202188694  0.3788425247229559
  0.6799990464768274  0.0009354349926345  0.0293609258497510
  0.2991840518664961  0.4815394601938228  0.6225957203154221
  0.5912404998566513  0.1392084214411202  0.8860329568149540
  0.5866914130483728  0.8035626922927648  0.4198494034652039
  0.1796905781217956  0.5271407477409343  0.4884204880322220
  0.2491406367126659  0.8024788260286194  0.7541012804166922
  0.8423675985241605  0.5159047852699166  0.0173537672774226
  0.0515203192548957  0.0408595031316892  0.5704192915413744
  0.3098288035681181  0.2405018260635499  0.0826365209117877
  0.6420372363849526  0.4893607085600489  0.9439917142962887
  0.8206989594600950  0.4827706603464121  0.5538610627351125
 
  0.00000000E+00  0.00000000E+00  0.00000000E+00
  0.00000000E+00  0.00000000E+00  0.00000000E+00
  0.00000000E+00  0.00000000E+00  0.00000000E+00
  0.00000000E+00  0.00000000E+00  0.00000000E+00
  0.00000000E+00  0.00000000E+00  0.00000000E+00
  0.00000000E+00  0.00000000E+00  0.00000000E+00
  0.00000000E+00  0.00000000E+00  0.00000000E+00
  0.00000000E+00  0.00000000E+00  0.00000000E+00
  0.00000000E+00  0.00000000E+00  0.00000000E+00
  0.00000000E+00  0.00000000E+00  0.00000000E+00
  0.00000000E+00  0.00000000E+00  0.00000000E+00
  0.00000000E+00  0.00000000E+00  0.00000000E+00
  0.00000000E+00  0.00000000E+00  0.00000000E+00
  0.00000000E+00  0.00000000E+00  0.00000000E+00
  0.00000000E+00  0.00000000E+00  0.00000000E+00
  0.00000000E+00  0.00000000E+00  0.00000000E+00
  0.00000000E+00  0.00000000E+00  0.00000000E+00
  0.00000000E+00  0.00000000E+00  0.00000000E+00
  0.00000000E+00  0.00000000E+00  0.00000000E+00
  0.00000000E+00  0.00000000E+00  0.00000000E+00
  0.00000000E+00  0.00000000E+00  0.00000000E+00
  0.00000000E+00  0.00000000E+00  0.00000000E+00
  0.00000000E+00  0.00000000E+00  0.00000000E+00
  0.00000000E+00  0.00000000E+00  0.00000000E+00
  0.00000000E+00  0.00000000E+00  0.00000000E+00
  0.00000000E+00  0.00000000E+00  0.00000000E+00
  0.00000000E+00  0.00000000E+00  0.00000000E+00
  0.00000000E+00  0.00000000E+00  0.00000000E+00
  0.00000000E+00  0.00000000E+00  0.00000000E+00
  0.00000000E+00  0.00000000E+00  0.00000000E+00
  0.00000000E+00  0.00000000E+00  0.00000000E+00
  0.00000000E+00  0.00000000E+00  0.00000000E+00
  0.00000000E+00  0.00000000E+00  0.00000000E+00
  0.00000000E+00  0.00000000E+00  0.00000000E+00
  0.00000000E+00  0.00000000E+00  0.00000000E+00
  0.00000000E+00  0.00000000E+00  0.00000000E+00
  0.00000000E+00  0.00000000E+00  0.00000000E+00
  0.00000000E+00  0.00000000E+00  0.00000000E+00
  0.00000000E+00  0.00000000E+00  0.00000000E+00
  0.00000000E+00  0.00000000E+00  0.00000000E+00
  0.00000000E+00  0.00000000E+00  0.00000000E+00
  0.00000000E+00  0.00000000E+00  0.00000000E+00
  0.00000000E+00  0.00000000E+00  0.00000000E+00
  0.00000000E+00  0.00000000E+00  0.00000000E+00
  0.00000000E+00  0.00000000E+00  0.00000000E+00
  0.00000000E+00  0.00000000E+00  0.00000000E+00
  0.00000000E+00  0.00000000E+00  0.00000000E+00
  0.00000000E+00  0.00000000E+00  0.00000000E+00
  0.00000000E+00  0.00000000E+00  0.00000000E+00
  0.00000000E+00  0.00000000E+00  0.00000000E+00
  0.00000000E+00  0.00000000E+00  0.00000000E+00
  0.00000000E+00  0.00000000E+00  0.00000000E+00
  0.00000000E+00  0.00000000E+00  0.00000000E+00
  0.00000000E+00  0.00000000E+00  0.00000000E+00
  0.00000000E+00  0.00000000E+00  0.00000000E+00
  0.00000000E+00  0.00000000E+00  0.00000000E+00
  0.00000000E+00  0.00000000E+00  0.00000000E+00
  0.00000000E+00  0.00000000E+00  0.00000000E+00
  0.00000000E+00  0.00000000E+00  0.00000000E+00
  0.00000000E+00  0.00000000E+00  0.00000000E+00
  0.00000000E+00  0.00000000E+00  0.00000000E+00
  0.00000000E+00  0.00000000E+00  0.00000000E+00
  0.00000000E+00  0.00000000E+00  0.00000000E+00
  0.00000000E+00  0.00000000E+00  0.00000000E+00
  0.00000000E+00  0.00000000E+00  0.00000000E+00
  0.00000000E+00  0.00000000E+00  0.00000000E+00
  0.00000000E+00  0.00000000E+00  0.00000000E+00
  0.00000000E+00  0.00000000E+00  0.00000000E+00
  0.00000000E+00  0.00000000E+00  0.00000000E+00
  0.00000000E+00  0.00000000E+00  0.00000000E+00
  0.00000000E+00  0.00000000E+00  0.00000000E+00
  0.00000000E+00  0.00000000E+00  0.00000000E+00
  0.00000000E+00  0.00000000E+00  0.00000000E+00
  0.00000000E+00  0.00000000E+00  0.00000000E+00
  0.00000000E+00  0.00000000E+00  0.00000000E+00
  0.00000000E+00  0.00000000E+00  0.00000000E+00
  0.00000000E+00  0.00000000E+00  0.00000000E+00
  0.00000000E+00  0.00000000E+00  0.00000000E+00
  0.00000000E+00  0.00000000E+00  0.00000000E+00
  0.00000000E+00  0.00000000E+00  0.00000000E+00
  0.00000000E+00  0.00000000E+00  0.00000000E+00
  0.00000000E+00  0.00000000E+00  0.00000000E+00
  0.00000000E+00  0.00000000E+00  0.00000000E+00
  0.00000000E+00  0.00000000E+00  0.00000000E+00
  0.00000000E+00  0.00000000E+00  0.00000000E+00
  0.00000000E+00  0.00000000E+00  0.00000000E+00
  0.00000000E+00  0.00000000E+00  0.00000000E+00
  0.00000000E+00  0.00000000E+00  0.00000000E+00
  0.00000000E+00  0.00000000E+00  0.00000000E+00
  0.00000000E+00  0.00000000E+00  0.00000000E+00
  0.00000000E+00  0.00000000E+00  0.00000000E+00
  0.00000000E+00  0.00000000E+00  0.00000000E+00
  0.00000000E+00  0.00000000E+00  0.00000000E+00
  0.00000000E+00  0.00000000E+00  0.00000000E+00
  0.00000000E+00  0.00000000E+00  0.00000000E+00
  0.00000000E+00  0.00000000E+00  0.00000000E+00
  0.00000000E+00  0.00000000E+00  0.00000000E+00
  0.00000000E+00  0.00000000E+00  0.00000000E+00
  0.00000000E+00  0.00000000E+00  0.00000000E+00
  0.00000000E+00  0.00000000E+00  0.00000000E+00
  0.00000000E+00  0.00000000E+00  0.00000000E+00
  0.00000000E+00  0.00000000E+00  0.00000000E+00
  0.00000000E+00  0.00000000E+00  0.00000000E+00
  0.00000000E+00  0.00000000E+00  0.00000000E+00
  0.00000000E+00  0.00000000E+00  0.00000000E+00
  0.00000000E+00  0.00000000E+00  0.00000000E+00
  0.00000000E+00  0.00000000E+00  0.00000000E+00
  0.00000000E+00  0.00000000E+00  0.00000000E+00
  0.00000000E+00  0.00000000E+00  0.00000000E+00
  0.00000000E+00  0.00000000E+00  0.00000000E+00
  0.00000000E+00  0.00000000E+00  0.00000000E+00
  0.00000000E+00  0.00000000E+00  0.00000000E+00
  0.00000000E+00  0.00000000E+00  0.00000000E+00
  0.00000000E+00  0.00000000E+00  0.00000000E+00
  0.00000000E+00  0.00000000E+00  0.00000000E+00
  0.00000000E+00  0.00000000E+00  0.00000000E+00
  0.00000000E+00  0.00000000E+00  0.00000000E+00
  0.00000000E+00  0.00000000E+00  0.00000000E+00
  0.00000000E+00  0.00000000E+00  0.00000000E+00
  0.00000000E+00  0.00000000E+00  0.00000000E+00
  0.00000000E+00  0.00000000E+00  0.00000000E+00
  0.00000000E+00  0.00000000E+00  0.00000000E+00
  0.00000000E+00  0.00000000E+00  0.00000000E+00
  0.00000000E+00  0.00000000E+00  0.00000000E+00
  0.00000000E+00  0.00000000E+00  0.00000000E+00
  0.00000000E+00  0.00000000E+00  0.00000000E+00
  0.00000000E+00  0.00000000E+00  0.00000000E+00
  0.00000000E+00  0.00000000E+00  0.00000000E+00
  0.00000000E+00  0.00000000E+00  0.00000000E+00
  0.00000000E+00  0.00000000E+00  0.00000000E+00
  0.00000000E+00  0.00000000E+00  0.00000000E+00
  0.00000000E+00  0.00000000E+00  0.00000000E+00
  0.00000000E+00  0.00000000E+00  0.00000000E+00
  0.00000000E+00  0.00000000E+00  0.00000000E+00
  0.00000000E+00  0.00000000E+00  0.00000000E+00
  0.00000000E+00  0.00000000E+00  0.00000000E+00
  0.00000000E+00  0.00000000E+00  0.00000000E+00
  0.00000000E+00  0.00000000E+00  0.00000000E+00
  0.00000000E+00  0.00000000E+00  0.00000000E+00
  0.00000000E+00  0.00000000E+00  0.00000000E+00
  0.00000000E+00  0.00000000E+00  0.00000000E+00
  0.00000000E+00  0.00000000E+00  0.00000000E+00
  0.00000000E+00  0.00000000E+00  0.00000000E+00
  0.00000000E+00  0.00000000E+00  0.00000000E+00
  0.00000000E+00  0.00000000E+00  0.00000000E+00
  0.00000000E+00  0.00000000E+00  0.00000000E+00
  0.00000000E+00  0.00000000E+00  0.00000000E+00
  0.00000000E+00  0.00000000E+00  0.00000000E+00
  0.00000000E+00  0.00000000E+00  0.00000000E+00
  0.00000000E+00  0.00000000E+00  0.00000000E+00
  0.00000000E+00  0.00000000E+00  0.00000000E+00
  0.00000000E+00  0.00000000E+00  0.00000000E+00
  0.00000000E+00  0.00000000E+00  0.00000000E+00
  0.00000000E+00  0.00000000E+00  0.00000000E+00
  0.00000000E+00  0.00000000E+00  0.00000000E+00
  0.00000000E+00  0.00000000E+00  0.00000000E+00
  0.00000000E+00  0.00000000E+00  0.00000000E+00
  0.00000000E+00  0.00000000E+00  0.00000000E+00
  0.00000000E+00  0.00000000E+00  0.00000000E+00
  0.00000000E+00  0.00000000E+00  0.00000000E+00
  0.00000000E+00  0.00000000E+00  0.00000000E+00
  0.00000000E+00  0.00000000E+00  0.00000000E+00
  0.00000000E+00  0.00000000E+00  0.00000000E+00
  0.00000000E+00  0.00000000E+00  0.00000000E+00
  0.00000000E+00  0.00000000E+00  0.00000000E+00
  0.00000000E+00  0.00000000E+00  0.00000000E+00
  0.00000000E+00  0.00000000E+00  0.00000000E+00
  0.00000000E+00  0.00000000E+00  0.00000000E+00
  0.00000000E+00  0.00000000E+00  0.00000000E+00
  0.00000000E+00  0.00000000E+00  0.00000000E+00
  0.00000000E+00  0.00000000E+00  0.00000000E+00
  0.00000000E+00  0.00000000E+00  0.00000000E+00
  0.00000000E+00  0.00000000E+00  0.00000000E+00
  0.00000000E+00  0.00000000E+00  0.00000000E+00
  0.00000000E+00  0.00000000E+00  0.00000000E+00
  0.00000000E+00  0.00000000E+00  0.00000000E+00
  0.00000000E+00  0.00000000E+00  0.00000000E+00
  0.00000000E+00  0.00000000E+00  0.00000000E+00
  0.00000000E+00  0.00000000E+00  0.00000000E+00
  0.00000000E+00  0.00000000E+00  0.00000000E+00
  0.00000000E+00  0.00000000E+00  0.00000000E+00
  0.00000000E+00  0.00000000E+00  0.00000000E+00
  0.00000000E+00  0.00000000E+00  0.00000000E+00
  0.00000000E+00  0.00000000E+00  0.00000000E+00
  0.00000000E+00  0.00000000E+00  0.00000000E+00
  0.00000000E+00  0.00000000E+00  0.00000000E+00
  0.00000000E+00  0.00000000E+00  0.00000000E+00
  0.00000000E+00  0.00000000E+00  0.00000000E+00
  0.00000000E+00  0.00000000E+00  0.00000000E+00
  0.00000000E+00  0.00000000E+00  0.00000000E+00
  0.00000000E+00  0.00000000E+00  0.00000000E+00
  0.00000000E+00  0.00000000E+00  0.00000000E+00
  0.00000000E+00  0.00000000E+00  0.00000000E+00
  0.00000000E+00  0.00000000E+00  0.00000000E+00
  0.00000000E+00  0.00000000E+00  0.00000000E+00
  0.00000000E+00  0.00000000E+00  0.00000000E+00
  0.00000000E+00  0.00000000E+00  0.00000000E+00
  0.00000000E+00  0.00000000E+00  0.00000000E+00
  0.00000000E+00  0.00000000E+00  0.00000000E+00
  0.00000000E+00  0.00000000E+00  0.00000000E+00
  0.00000000E+00  0.00000000E+00  0.00000000E+00
  0.00000000E+00  0.00000000E+00  0.00000000E+00
  0.00000000E+00  0.00000000E+00  0.00000000E+00
  0.00000000E+00  0.00000000E+00  0.00000000E+00
  0.00000000E+00  0.00000000E+00  0.00000000E+00
  0.00000000E+00  0.00000000E+00  0.00000000E+00
  0.00000000E+00  0.00000000E+00  0.00000000E+00
  0.00000000E+00  0.00000000E+00  0.00000000E+00
  0.00000000E+00  0.00000000E+00  0.00000000E+00
