fcc:                                    
   1.00000000000000     
    12.9680718217449993    0.0000000000000000    0.0000000000000000
     0.0000000000000000   12.9680718217449993    0.0000000000000000
     0.0000000000000000    0.0000000000000000   12.9680718217449993
   Ti   O 
    72   133
Direct
  0.1810695614416327  0.5232805627114917  0.3225904349551408
  0.6275912566956812  0.7821337433877010  0.4140485684064842
  0.3846106836633046  0.2283673216995316  0.7487039197600737
  0.8521850170806754  0.5091383790576575  0.9019599771037058
  0.1878455803544423  0.7843851213671563  0.8258542803255745
  0.8380999122250450  0.8557592921963493  0.3629679303896930
  0.7336378593110531  0.7042585052932758  0.7402923105713366
  0.7727774507932820  0.1388768983719795  0.0894661740503669
  0.9615916595120421  0.4838878147494801  0.3841434044206773
  0.8922406155830087  0.2656992421583632  0.2732167738073406
  0.7213776593637218  0.4714232564740333  0.6909468015496365
  0.8438577485066202  0.8631786298978686  0.6018157677048019
  0.5558653370304811  0.3496316632793633  0.5127194130221561
  0.0867985608034444  0.0702761471593462  0.9041579306732628
  0.2010802909717118  0.4413388820990660  0.7099527459596414
  0.1978166195935250  0.2645444030647865  0.2750921835484878
  0.9358580392903125  0.1411342361863980  0.6170225840111442
  0.1566112190585832  0.7317166976263054  0.1214394401212628
  0.2442591157754076  0.7748866333467036  0.3914440038837567
  0.1734351733628216  0.9604060343060487  0.2507943239890482
  0.4096162047726696  0.9018552367328463  0.8564723505867220
  0.7619321715474594  0.9027580863020735  0.0386954547049858
  0.8256599810787582  0.2640414302287279  0.8576765711217257
  0.3200275473396242  0.2881077905140975  0.5258373206073549
  0.0397521262476316  0.6507400154541949  0.6303637435092361
  0.9861437590047830  0.3808658195720953  0.7408439031947399
  0.4196084421923174  0.8456015929137586  0.6076448735904859
  0.5149735633473081  0.0811459421531646  0.4941067302476712
  0.4528462635986062  0.6875511022743487  0.7970286984025089
  0.6660260808037453  0.6998267427010999  0.9599425153143795
  0.6189819847004870  0.3697234758015880  0.9083810290072195
  0.4023543029766045  0.1265843815755310  0.2061402119660068
  0.4402771046055236  0.3637499342913884  0.3011891950260811
  0.6350085463343450  0.9983094350360542  0.2709555079377307
  0.2621805401088382  0.2013181130890399  0.9939820139455255
  0.3356558335897968  0.4613254370689402  0.9092241292734360
  0.6546201208818957  0.2700677315172677  0.2579730834277043
  0.8319064810795567  0.0251870169631441  0.7873673626412994
  0.0865614822074409  0.5978364998114410  0.9063469104319081
  0.0252851450132237  0.4554421076740195  0.1426839987783385
  0.4831345697989985  0.3021120374473176  0.0611183015401106
  0.0485198512598133  0.1737778666225935  0.1076149757966006
  0.3133002553938901  0.6299869315800687  0.5610483731671829
  0.5472616476443510  0.9368179361374311  0.0552500138246907
  0.9184933723187239  0.8138207678719651  0.8931657423828818
  0.2474180144951624  0.0213929317113776  0.6711521788943318
  0.8302169162418161  0.6246573525566566  0.5035736454039347
  0.4147428834715535  0.7009878557517139  0.0604551829278185
  0.0645108122239391  0.9077176366229669  0.5089001032638178
  0.4121607488680198  0.6127759064732375  0.3262414005491037
  0.0787680788223945  0.3188799998758999  0.5063689473247953
  0.3048483267199081  0.0444708455994803  0.4336422723414924
  0.9762338405238568  0.9425710738101862  0.1312602544456890
  0.5509235238687488  0.5218051570319470  0.1557306203114803
  0.4543100970851567  0.4505200060183031  0.7097908921156612
  0.7550019123902380  0.4467600212381074  0.1091240098912704
  0.2667664425156896  0.9297965424775537  0.0437877024936658
  0.7703827628453357  0.1127821469108413  0.4230642831826075
  0.5516468848179721  0.6276148231451641  0.5561100137604404
  0.5973503463469231  0.1255229458390651  0.8929033729735268
  0.7930579531365876  0.3488688582504676  0.5038177731743361
  0.6331231328938224  0.7377030874409327  0.1870032867229770
  0.0948563645668365  0.3661352353521488  0.9384675569055499
  0.0462337317144169  0.1111954883871966  0.3624746289640304
  0.4164807843444160  0.8982567327691868  0.2641941601531964
  0.0424295172420814  0.9294292718611699  0.7325760212207397
  0.6045123693272001  0.9444224122356736  0.7282538589996225
  0.2837981291831482  0.4878920866739612  0.1300801418545619
  0.6668126378018683  0.1853154536971885  0.6740013045859202
  0.0187114349263347  0.7308479051539285  0.3093633303689012
  0.6694593639314937  0.5375190075706530  0.3428607718803236
  0.8798070720554648  0.6686305434269929  0.0769680004831959
  0.4155713879620590  0.6062362541145671  0.1749414924301646
  0.8331244295657749  0.1766813956578875  0.7376705933072722
  0.6036869972639946  0.4485568853550753  0.7895741175043758
  0.1007734622147990  0.7792142697695517  0.4401277545662494
  0.7660838537656105  0.2874180178401077  0.1499522333187255
  0.1125056427668513  0.2075434483582862  0.9548490221274001
  0.0331343832487740  0.0145319653482496  0.6161339192167611
  0.4970398073472491  0.8291464648544494  0.7468384145602130
  0.0046085696105986  0.0548575586119133  0.0213904656885958
  0.2074898217884001  0.6102264666114197  0.1924081641879689
  0.6742747938060207  0.2578873703550613  0.8243807365972341
  0.6066794799290179  0.4306579581648812  0.0460433554251050
  0.5565621924426521  0.8907190264551260  0.3411053962663793
  0.2784795578397110  0.9157297703738557  0.3596382417877552
  0.9171942807858082  0.9204625628888802  0.4797351576486428
  0.1617178906915837  0.7934751013646082  0.2613347637678848
  0.8151687784929916  0.4886885385667016  0.5787432096701451
  0.6052254409126843  0.6775839628611769  0.8286805297749371
  0.3626246531404711  0.9553434970517093  0.7231421821632630
  0.1755030745924561  0.8713559509651287  0.7043743130756135
  0.4264698156583491  0.5973176376182374  0.4699816535358903
  0.3427440744552288  0.2560485227244247  0.2674630326299913
  0.0606918431696667  0.4961801481525571  0.6769995958243527
  0.4072314200986151  0.9785936466014513  0.5258131219471512
  0.3080100927934625  0.9919058451572567  0.1739863960595553
  0.9475339711935211  0.6591871032946918  0.9361680464172790
  0.8123750983577382  0.1571833136930483  0.9520252607127864
  0.9105968270400094  0.8327046233284422  0.0372681299449588
  0.4306174397721040  0.3161730039920179  0.6286226250917906
  0.2051468731218848  0.1097475452545886  0.3331498309091018
  0.2983054260095800  0.7853999557942440  0.0921931121055877
  0.8261990667478832  0.5324899664817024  0.3791412006428920
  0.5206864184415275  0.2491554624575763  0.1958735092924476
  0.7542821663667316  0.5797117970075323  0.9906336614504301
  0.3277892576931926  0.3735975182600696  0.7822803419673289
  0.7308993347793753  0.7769690085484300  0.3011656806474889
  0.4360643512480002  0.7639225257921578  0.9252107227364065
  0.7642680948986329  0.2612489290103916  0.3593074170304099
  0.4317283187695674  0.6733913338767974  0.6492102676062875
  0.5405489306181003  0.7826010927586109  0.5300232064653259
  0.6841109805813281  0.3401093268472350  0.6257633936670479
  0.6952540736577576  0.5915279209818354  0.1910343197957123
  0.6297363631696621  0.8467162430790730  0.9688300860119878
  0.1302263447311306  0.8910119118010489  0.1005487182310166
  0.5379729557749863  0.4783998346197025  0.5895360581245567
  0.0485644134434789  0.2410345933300350  0.2753214679226099
  0.9417020388155677  0.8603927912289477  0.2578345726430722
  0.4109167841477022  0.9555747995206344  0.0024346096326419
  0.7511443690371489  0.7531090828619814  0.0827801882400657
  0.9234551624489586  0.4088894343807792  0.2455144894181774
  0.0258424292841921  0.3288676265502274  0.0784929618051077
  0.3225118043457673  0.4786259989958790  0.2969724333599230
  0.8004914491983262  0.5736483414649800  0.7850255948787765
  0.5594689064410479  0.6472039110143822  0.0480738908157134
  0.3701167822370785  0.7551279203236764  0.3120402233455231
  0.2482551654997019  0.6243334351499493  0.4088328779919802
  0.7740125807126741  0.3865185490236479  0.9513388677797426
  0.6829557987005132  0.6429568740279973  0.4643234740862604
  0.4274151191900403  0.5480892238224949  0.8257304640408580
  0.2120574267382173  0.2869946602400619  0.4189954379326055
  0.5989780304911713  0.2380414465531323  0.9983491115407516
  0.8284418688967926  0.0082195390665135  0.6372075041856810
  0.6171498017650457  0.0864694207117522  0.3922000491348980
  0.8311884677669193  0.0045326148230669  0.1183626833976290
  0.3164968542575221  0.5075783915024537  0.6386400978631684
  0.5520818971587064  0.2928247687154320  0.3697082645686177
  0.2569924729184483  0.3624853557819998  0.9987859182308678
  0.0463087257313220  0.1667842763396313  0.4965334338789807
  0.3204233976081226  0.1815951463158435  0.8677567665683711
  0.2033219883564440  0.5150467685862742  0.8479876169552201
  0.1600648878398131  0.0487082252391695  0.7801368681419935
  0.1706893139299715  0.6484577129884629  0.5982325708480443
  0.4918057917226220  0.8118742113397192  0.1395016739439978
  0.2658689196914442  0.8865371492848585  0.8993506550266357
  0.3928862651391876  0.1875769241156986  0.0596495330515093
  0.5145897220522171  0.1751437237129738  0.7601208875594211
  0.5766798372575176  0.2055029273727227  0.5489335779755078
  0.6858731575167976  0.1273063886408653  0.2115889389104898
  0.6885108520813316  0.0609283371954190  0.7835849318422293
  0.0729364565329960  0.9690862350278964  0.3770353034661242
  0.5136758144324870  0.4952553472399783  0.3101408516813542
  0.2133932202498983  0.0558295166051796  0.9916350957843817
  0.2973554713199406  0.1587192105293516  0.6529566218152325
  0.9641824459066550  0.2932297214243814  0.8692418950155977
  0.9003692208010563  0.8774957200103050  0.7543869489432499
  0.8030526523006984  0.1915112585965596  0.5450592756271843
  0.2030598536623920  0.3420572799629898  0.6007236947220691
  0.6658392540519057  0.6078519346629451  0.6568077675247719
  0.0374332020336653  0.5672716555826832  0.2858917882733902
  0.0154292704905251  0.7001996700849040  0.1494939889611132
  0.6618007950124515  0.9012078597734190  0.1584996600690226
  0.6674170723699318  0.4235346311587290  0.4479905087430773
  0.9721546977883748  0.2984312200892588  0.6249425554966799
  0.7440437705012127  0.8414768795390397  0.4904472778536286
  0.9750330957406856  0.0617053810534718  0.8030442735877474
  0.9344185683609220  0.3435645152053017  0.4266293608745141
  0.0589240183795395  0.0558239503393456  0.2064526159954367
  0.1947108703021908  0.2028434472612005  0.1377213293786271
  0.3388865043134913  0.5708129629048176  0.0052441497681943
  0.6575610175807730  0.0389718980871855  0.0183474605189166
  0.5249917889644031  0.9915182821905538  0.8585240504088933
  0.1617558720100912  0.4075010703943970  0.2179317343068570
  0.7673836183936376  0.9820266641383495  0.3342272231974692
  0.3090255959220920  0.7804178405292476  0.5253644600149062
  0.0738077643638508  0.6847542740033078  0.7803219450021603
  0.9088118714754106  0.1810585932482214  0.1505003726321741
  0.6671890192077350  0.4151381065355527  0.2358964613714687
  0.4626019869179369  0.3681287789986883  0.9270691065591574
  0.2042657167311109  0.9895984197808181  0.5330097465873729
  0.1546341026046505  0.7111291120856004  0.9667310276420897
  0.9954218109523021  0.4809838270398841  0.8709583933977376
  0.4077030166329013  0.3766071018301051  0.4495910699687686
  0.7849560283591662  0.7506967450965124  0.8728583607962784
  0.3043739131371022  0.7210165768012873  0.7847951059991308
  0.0564256057374980  0.8829059937346990  0.8773005122572485
  0.7114573561348906  0.8398218422479333  0.6906223492690181
  0.1066038988281683  0.4529409624562654  0.4276780992559997
  0.4237021545860002  0.4109810092488136  0.1430780949933894
  0.8496143827624203  0.7052636496615587  0.6310789998262191
  0.8351877056786838  0.3955131340876479  0.7680756324968941
  0.5952348987582498  0.0211756102312372  0.6012784530143586
  0.5569845935018408  0.6783663049307133  0.3185401803656138
  0.9770037685495305  0.5829653228952985  0.5100000477313180
  0.1230858341774049  0.3384453769842855  0.7829634002010808
  0.5095194404003992  0.0172999265618742  0.1775835044208641
  0.8952989316137938  0.7224256726735875  0.4060220060961948
  0.9041286719244279  0.5103134367947015  0.0729322200282647
  0.4217055911638290  0.0441325632683966  0.3404717763877608
  0.8235979138171654  0.9428378728667198  0.9103775792464758
  0.0094505883479845  0.8130920953621859  0.6170774407195984
  0.3824514161361632  0.1667768737094499  0.4753156784941190
  0.1137627302559683  0.5081878792768809  0.0326300865406597
  0.9045565825258921  0.1304984340161934  0.3472754464693424
 
  0.00000000E+00  0.00000000E+00  0.00000000E+00
  0.00000000E+00  0.00000000E+00  0.00000000E+00
  0.00000000E+00  0.00000000E+00  0.00000000E+00
  0.00000000E+00  0.00000000E+00  0.00000000E+00
  0.00000000E+00  0.00000000E+00  0.00000000E+00
  0.00000000E+00  0.00000000E+00  0.00000000E+00
  0.00000000E+00  0.00000000E+00  0.00000000E+00
  0.00000000E+00  0.00000000E+00  0.00000000E+00
  0.00000000E+00  0.00000000E+00  0.00000000E+00
  0.00000000E+00  0.00000000E+00  0.00000000E+00
  0.00000000E+00  0.00000000E+00  0.00000000E+00
  0.00000000E+00  0.00000000E+00  0.00000000E+00
  0.00000000E+00  0.00000000E+00  0.00000000E+00
  0.00000000E+00  0.00000000E+00  0.00000000E+00
  0.00000000E+00  0.00000000E+00  0.00000000E+00
  0.00000000E+00  0.00000000E+00  0.00000000E+00
  0.00000000E+00  0.00000000E+00  0.00000000E+00
  0.00000000E+00  0.00000000E+00  0.00000000E+00
  0.00000000E+00  0.00000000E+00  0.00000000E+00
  0.00000000E+00  0.00000000E+00  0.00000000E+00
  0.00000000E+00  0.00000000E+00  0.00000000E+00
  0.00000000E+00  0.00000000E+00  0.00000000E+00
  0.00000000E+00  0.00000000E+00  0.00000000E+00
  0.00000000E+00  0.00000000E+00  0.00000000E+00
  0.00000000E+00  0.00000000E+00  0.00000000E+00
  0.00000000E+00  0.00000000E+00  0.00000000E+00
  0.00000000E+00  0.00000000E+00  0.00000000E+00
  0.00000000E+00  0.00000000E+00  0.00000000E+00
  0.00000000E+00  0.00000000E+00  0.00000000E+00
  0.00000000E+00  0.00000000E+00  0.00000000E+00
  0.00000000E+00  0.00000000E+00  0.00000000E+00
  0.00000000E+00  0.00000000E+00  0.00000000E+00
  0.00000000E+00  0.00000000E+00  0.00000000E+00
  0.00000000E+00  0.00000000E+00  0.00000000E+00
  0.00000000E+00  0.00000000E+00  0.00000000E+00
  0.00000000E+00  0.00000000E+00  0.00000000E+00
  0.00000000E+00  0.00000000E+00  0.00000000E+00
  0.00000000E+00  0.00000000E+00  0.00000000E+00
  0.00000000E+00  0.00000000E+00  0.00000000E+00
  0.00000000E+00  0.00000000E+00  0.00000000E+00
  0.00000000E+00  0.00000000E+00  0.00000000E+00
  0.00000000E+00  0.00000000E+00  0.00000000E+00
  0.00000000E+00  0.00000000E+00  0.00000000E+00
  0.00000000E+00  0.00000000E+00  0.00000000E+00
  0.00000000E+00  0.00000000E+00  0.00000000E+00
  0.00000000E+00  0.00000000E+00  0.00000000E+00
  0.00000000E+00  0.00000000E+00  0.00000000E+00
  0.00000000E+00  0.00000000E+00  0.00000000E+00
  0.00000000E+00  0.00000000E+00  0.00000000E+00
  0.00000000E+00  0.00000000E+00  0.00000000E+00
  0.00000000E+00  0.00000000E+00  0.00000000E+00
  0.00000000E+00  0.00000000E+00  0.00000000E+00
  0.00000000E+00  0.00000000E+00  0.00000000E+00
  0.00000000E+00  0.00000000E+00  0.00000000E+00
  0.00000000E+00  0.00000000E+00  0.00000000E+00
  0.00000000E+00  0.00000000E+00  0.00000000E+00
  0.00000000E+00  0.00000000E+00  0.00000000E+00
  0.00000000E+00  0.00000000E+00  0.00000000E+00
  0.00000000E+00  0.00000000E+00  0.00000000E+00
  0.00000000E+00  0.00000000E+00  0.00000000E+00
  0.00000000E+00  0.00000000E+00  0.00000000E+00
  0.00000000E+00  0.00000000E+00  0.00000000E+00
  0.00000000E+00  0.00000000E+00  0.00000000E+00
  0.00000000E+00  0.00000000E+00  0.00000000E+00
  0.00000000E+00  0.00000000E+00  0.00000000E+00
  0.00000000E+00  0.00000000E+00  0.00000000E+00
  0.00000000E+00  0.00000000E+00  0.00000000E+00
  0.00000000E+00  0.00000000E+00  0.00000000E+00
  0.00000000E+00  0.00000000E+00  0.00000000E+00
  0.00000000E+00  0.00000000E+00  0.00000000E+00
  0.00000000E+00  0.00000000E+00  0.00000000E+00
  0.00000000E+00  0.00000000E+00  0.00000000E+00
  0.00000000E+00  0.00000000E+00  0.00000000E+00
  0.00000000E+00  0.00000000E+00  0.00000000E+00
  0.00000000E+00  0.00000000E+00  0.00000000E+00
  0.00000000E+00  0.00000000E+00  0.00000000E+00
  0.00000000E+00  0.00000000E+00  0.00000000E+00
  0.00000000E+00  0.00000000E+00  0.00000000E+00
  0.00000000E+00  0.00000000E+00  0.00000000E+00
  0.00000000E+00  0.00000000E+00  0.00000000E+00
  0.00000000E+00  0.00000000E+00  0.00000000E+00
  0.00000000E+00  0.00000000E+00  0.00000000E+00
  0.00000000E+00  0.00000000E+00  0.00000000E+00
  0.00000000E+00  0.00000000E+00  0.00000000E+00
  0.00000000E+00  0.00000000E+00  0.00000000E+00
  0.00000000E+00  0.00000000E+00  0.00000000E+00
  0.00000000E+00  0.00000000E+00  0.00000000E+00
  0.00000000E+00  0.00000000E+00  0.00000000E+00
  0.00000000E+00  0.00000000E+00  0.00000000E+00
  0.00000000E+00  0.00000000E+00  0.00000000E+00
  0.00000000E+00  0.00000000E+00  0.00000000E+00
  0.00000000E+00  0.00000000E+00  0.00000000E+00
  0.00000000E+00  0.00000000E+00  0.00000000E+00
  0.00000000E+00  0.00000000E+00  0.00000000E+00
  0.00000000E+00  0.00000000E+00  0.00000000E+00
  0.00000000E+00  0.00000000E+00  0.00000000E+00
  0.00000000E+00  0.00000000E+00  0.00000000E+00
  0.00000000E+00  0.00000000E+00  0.00000000E+00
  0.00000000E+00  0.00000000E+00  0.00000000E+00
  0.00000000E+00  0.00000000E+00  0.00000000E+00
  0.00000000E+00  0.00000000E+00  0.00000000E+00
  0.00000000E+00  0.00000000E+00  0.00000000E+00
  0.00000000E+00  0.00000000E+00  0.00000000E+00
  0.00000000E+00  0.00000000E+00  0.00000000E+00
  0.00000000E+00  0.00000000E+00  0.00000000E+00
  0.00000000E+00  0.00000000E+00  0.00000000E+00
  0.00000000E+00  0.00000000E+00  0.00000000E+00
  0.00000000E+00  0.00000000E+00  0.00000000E+00
  0.00000000E+00  0.00000000E+00  0.00000000E+00
  0.00000000E+00  0.00000000E+00  0.00000000E+00
  0.00000000E+00  0.00000000E+00  0.00000000E+00
  0.00000000E+00  0.00000000E+00  0.00000000E+00
  0.00000000E+00  0.00000000E+00  0.00000000E+00
  0.00000000E+00  0.00000000E+00  0.00000000E+00
  0.00000000E+00  0.00000000E+00  0.00000000E+00
  0.00000000E+00  0.00000000E+00  0.00000000E+00
  0.00000000E+00  0.00000000E+00  0.00000000E+00
  0.00000000E+00  0.00000000E+00  0.00000000E+00
  0.00000000E+00  0.00000000E+00  0.00000000E+00
  0.00000000E+00  0.00000000E+00  0.00000000E+00
  0.00000000E+00  0.00000000E+00  0.00000000E+00
  0.00000000E+00  0.00000000E+00  0.00000000E+00
  0.00000000E+00  0.00000000E+00  0.00000000E+00
  0.00000000E+00  0.00000000E+00  0.00000000E+00
  0.00000000E+00  0.00000000E+00  0.00000000E+00
  0.00000000E+00  0.00000000E+00  0.00000000E+00
  0.00000000E+00  0.00000000E+00  0.00000000E+00
  0.00000000E+00  0.00000000E+00  0.00000000E+00
  0.00000000E+00  0.00000000E+00  0.00000000E+00
  0.00000000E+00  0.00000000E+00  0.00000000E+00
  0.00000000E+00  0.00000000E+00  0.00000000E+00
  0.00000000E+00  0.00000000E+00  0.00000000E+00
  0.00000000E+00  0.00000000E+00  0.00000000E+00
  0.00000000E+00  0.00000000E+00  0.00000000E+00
  0.00000000E+00  0.00000000E+00  0.00000000E+00
  0.00000000E+00  0.00000000E+00  0.00000000E+00
  0.00000000E+00  0.00000000E+00  0.00000000E+00
  0.00000000E+00  0.00000000E+00  0.00000000E+00
  0.00000000E+00  0.00000000E+00  0.00000000E+00
  0.00000000E+00  0.00000000E+00  0.00000000E+00
  0.00000000E+00  0.00000000E+00  0.00000000E+00
  0.00000000E+00  0.00000000E+00  0.00000000E+00
  0.00000000E+00  0.00000000E+00  0.00000000E+00
  0.00000000E+00  0.00000000E+00  0.00000000E+00
  0.00000000E+00  0.00000000E+00  0.00000000E+00
  0.00000000E+00  0.00000000E+00  0.00000000E+00
  0.00000000E+00  0.00000000E+00  0.00000000E+00
  0.00000000E+00  0.00000000E+00  0.00000000E+00
  0.00000000E+00  0.00000000E+00  0.00000000E+00
  0.00000000E+00  0.00000000E+00  0.00000000E+00
  0.00000000E+00  0.00000000E+00  0.00000000E+00
  0.00000000E+00  0.00000000E+00  0.00000000E+00
  0.00000000E+00  0.00000000E+00  0.00000000E+00
  0.00000000E+00  0.00000000E+00  0.00000000E+00
  0.00000000E+00  0.00000000E+00  0.00000000E+00
  0.00000000E+00  0.00000000E+00  0.00000000E+00
  0.00000000E+00  0.00000000E+00  0.00000000E+00
  0.00000000E+00  0.00000000E+00  0.00000000E+00
  0.00000000E+00  0.00000000E+00  0.00000000E+00
  0.00000000E+00  0.00000000E+00  0.00000000E+00
  0.00000000E+00  0.00000000E+00  0.00000000E+00
  0.00000000E+00  0.00000000E+00  0.00000000E+00
  0.00000000E+00  0.00000000E+00  0.00000000E+00
  0.00000000E+00  0.00000000E+00  0.00000000E+00
  0.00000000E+00  0.00000000E+00  0.00000000E+00
  0.00000000E+00  0.00000000E+00  0.00000000E+00
  0.00000000E+00  0.00000000E+00  0.00000000E+00
  0.00000000E+00  0.00000000E+00  0.00000000E+00
  0.00000000E+00  0.00000000E+00  0.00000000E+00
  0.00000000E+00  0.00000000E+00  0.00000000E+00
  0.00000000E+00  0.00000000E+00  0.00000000E+00
  0.00000000E+00  0.00000000E+00  0.00000000E+00
  0.00000000E+00  0.00000000E+00  0.00000000E+00
  0.00000000E+00  0.00000000E+00  0.00000000E+00
  0.00000000E+00  0.00000000E+00  0.00000000E+00
  0.00000000E+00  0.00000000E+00  0.00000000E+00
  0.00000000E+00  0.00000000E+00  0.00000000E+00
  0.00000000E+00  0.00000000E+00  0.00000000E+00
  0.00000000E+00  0.00000000E+00  0.00000000E+00
  0.00000000E+00  0.00000000E+00  0.00000000E+00
  0.00000000E+00  0.00000000E+00  0.00000000E+00
  0.00000000E+00  0.00000000E+00  0.00000000E+00
  0.00000000E+00  0.00000000E+00  0.00000000E+00
  0.00000000E+00  0.00000000E+00  0.00000000E+00
  0.00000000E+00  0.00000000E+00  0.00000000E+00
  0.00000000E+00  0.00000000E+00  0.00000000E+00
  0.00000000E+00  0.00000000E+00  0.00000000E+00
  0.00000000E+00  0.00000000E+00  0.00000000E+00
  0.00000000E+00  0.00000000E+00  0.00000000E+00
  0.00000000E+00  0.00000000E+00  0.00000000E+00
  0.00000000E+00  0.00000000E+00  0.00000000E+00
  0.00000000E+00  0.00000000E+00  0.00000000E+00
  0.00000000E+00  0.00000000E+00  0.00000000E+00
  0.00000000E+00  0.00000000E+00  0.00000000E+00
  0.00000000E+00  0.00000000E+00  0.00000000E+00
  0.00000000E+00  0.00000000E+00  0.00000000E+00
  0.00000000E+00  0.00000000E+00  0.00000000E+00
  0.00000000E+00  0.00000000E+00  0.00000000E+00
  0.00000000E+00  0.00000000E+00  0.00000000E+00
  0.00000000E+00  0.00000000E+00  0.00000000E+00
  0.00000000E+00  0.00000000E+00  0.00000000E+00
  0.00000000E+00  0.00000000E+00  0.00000000E+00
  0.00000000E+00  0.00000000E+00  0.00000000E+00
  0.00000000E+00  0.00000000E+00  0.00000000E+00
  0.00000000E+00  0.00000000E+00  0.00000000E+00
