fcc:                                    
   1.00000000000000     
    13.1272220677949996    0.0000000000000000    0.0000000000000000
     0.0000000000000000   13.1272220677949996    0.0000000000000000
     0.0000000000000000    0.0000000000000000   13.1272220677949996
   Ti   O 
    72   142
Direct
  0.9536857498004047  0.8839310323290517  0.9309248158455168
  0.9169895128658987  0.7006417971649347  0.7962770815373343
  0.4759976334512384  0.7841477319079964  0.6742251539316474
  0.4457795095631065  0.4620135796853616  0.1275113043624873
  0.2130261010619082  0.2176627292623900  0.2477258388881632
  0.2556169298931449  0.8715407679214778  0.9222453520413464
  0.9002139113489654  0.2244330942680285  0.1031405873496722
  0.5018564589000986  0.3809177259221549  0.5277834611011293
  0.6460509340254185  0.4181510880529481  0.3399484802167292
  0.8684530395856909  0.8092674556444849  0.1920134741972595
  0.9857478352939624  0.6559702225698626  0.5691474660255154
  0.1208579169197018  0.0651120440520281  0.0470268524695178
  0.0685455480051582  0.9206302817045683  0.7021577293220299
  0.6653843875371585  0.2276087014369425  0.6290539262689893
  0.8577912542744484  0.4559895106939714  0.9629964473211073
  0.7043633856988105  0.8513159019727438  0.3884978513794416
  0.6832132985563475  0.3786851797001630  0.1086112452841358
  0.5285094936100349  0.0085565314208708  0.5715358621682393
  0.5641435242722275  0.6602016340001887  0.2547634465254996
  0.3538298839487100  0.0910023708708085  0.0544440187159958
  0.2906110036755876  0.5250045685888345  0.5433049294018208
  0.2485802101253578  0.4670537190809946  0.9308818358205141
  0.0275606628564568  0.4125904420798158  0.5330477804134440
  0.8547993855414505  0.8839299803096743  0.5665063000952822
  0.0944720405270744  0.8240578703824258  0.1481352654759078
  0.1860734345687396  0.3955735418406945  0.7147144127830088
  0.0191935193525190  0.5607686770144155  0.3464589635949870
  0.0167076776608516  0.0333188464750576  0.2555450786842511
  0.4430762135073468  0.5148946245811694  0.7282317497230153
  0.4116986597794531  0.0858870512014093  0.3827476931392211
  0.6380551135831669  0.4178596130262913  0.7861436483167130
  0.8994057436836049  0.1096957004588577  0.6956262786506526
  0.5304973077828997  0.6207248495766585  0.4774389266751989
  0.8601946410081984  0.3453310878639522  0.3442378482907720
  0.6309274722555085  0.1791343293001051  0.3783195503614551
  0.2946256487733033  0.9715691451029028  0.7176326279069870
  0.6448569962695572  0.7113302323842463  0.8129373659673691
  0.7539267138264080  0.4624242373333962  0.5632676683117432
  0.4183140977007402  0.3157728526838414  0.9057794781178408
  0.2243718118643424  0.7608844419365370  0.5853386283262739
  0.3808870310762602  0.1891864147734370  0.6537481087774931
  0.5394984027040695  0.9322005078605069  0.1793152154021316
  0.2315174573885990  0.4389323587086413  0.2737109880506026
  0.0865959800188040  0.7898587907489223  0.3825080136423549
  0.7484433210300760  0.6975584187724538  0.6191816682165343
  0.8294923643040660  0.0910867604625732  0.4626196943029538
  0.8054800068883402  0.0917538857794507  0.9413267478025775
  0.0318427123649478  0.1668058018547792  0.4450379776761721
  0.5738708627847366  0.1582875551652196  0.0559145841355178
  0.4364738008795203  0.7236136617535676  0.0823371267092357
  0.0823914964739393  0.4233191703588932  0.0926299789260124
  0.4978437020478786  0.9202493171989395  0.9122927607717205
  0.1459209560833403  0.6571143577486150  0.7779759577685920
  0.7729204908886605  0.5820222524935946  0.1904235756162240
  0.4751322350100645  0.8492702585693716  0.4215944079137281
  0.6937927511821990  0.9637128123686245  0.7306971218109136
  0.6322684525211415  0.5655800568250344  0.9794500962050253
  0.2312145199491760  0.2043657209772661  0.8485085270301452
  0.3934137106166667  0.6798366140320548  0.8762007647642410
  0.1934340783559020  0.9826771073496402  0.4585341671721465
  0.2224259857059099  0.6569770730133945  0.1044235866019895
  0.0229877723976908  0.2741713919487524  0.8978763723295035
  0.7285681717893675  0.8330597628977701  0.9832075402706094
  0.9646472213683359  0.6588675853171685  0.0147119615899764
  0.8943899285074746  0.3491375292203860  0.7122988713933849
  0.7551537797918646  0.0179861216712013  0.1993531448758427
  0.2414067515771861  0.2751887618948519  0.5016320694343904
  0.2958864412389691  0.6559081205297995  0.3397191099834338
  0.4691102645262640  0.2724050635887567  0.2471646687819747
  0.8030124280328688  0.6292643572859291  0.4081769484184114
  0.5627790124003378  0.1491247144382708  0.8329307219835568
  0.3175404331980631  0.8923916023220583  0.2479705720270764
  0.6411466579958046  0.2738172313891548  0.7690065931901473
  0.9520807693923513  0.6899337068043236  0.4207064180068182
  0.4633258470173021  0.5961744037081489  0.1639717963722501
  0.8563200637728304  0.6811773874264631  0.1177489808486992
  0.8679625769313455  0.7614359083380836  0.9315312047865585
  0.1924861350213142  0.8047314530490679  0.0396626788212130
  0.6216798869930388  0.0395689520992962  0.1285113652354261
  0.8051713886895525  0.2316434977763468  0.6625261102348244
  0.2871650425502946  0.3508253577991293  0.8375863959170770
  0.0083279127400493  0.0390074472530445  0.7507664725365961
  0.9698058000623125  0.8252306353737933  0.0692372782290270
  0.7081201672272357  0.1550142091755348  0.5019112069120056
  0.9508940872844017  0.1146001981923387  0.5548218384798831
  0.1242141700151805  0.2829250180593221  0.7880789865299752
  0.0994944475556946  0.1530492393439599  0.3042080619562905
  0.3917963282830353  0.8189908295996299  0.9782444406084039
  0.2321392374861684  0.1313217585899461  0.1327015324886996
  0.0919097816136189  0.4854271975933623  0.2382960209148439
  0.5094344132783907  0.7866065667226668  0.8272937611915880
  0.3620113771948379  0.3736919733613630  0.4995930220295930
  0.4388239716642306  0.5458503897112723  0.5627426492878156
  0.2114005393992094  0.3205566554601509  0.3610207918587977
  0.7990775014156808  0.3250608578195893  0.0441548587172292
  0.0086675723952744  0.1198536694864800  0.1297406025348546
  0.7185384749504515  0.2908967221030931  0.3394056235871031
  0.4102853865013391  0.9585630185797718  0.4933951670214280
  0.6759137079457906  0.5818236264766993  0.3136937734450156
  0.1803896284873296  0.3342310184637675  0.1671419971907445
  0.9119586087574887  0.2848501855432724  0.2273214598446288
  0.6300076360137857  0.2514189264013261  0.1473618171560882
  0.3255882222305675  0.2014907501233315  0.9586994198227026
  0.6047072964162792  0.9179517746567604  0.4740433688191601
  0.0504154862506071  0.6965747787542276  0.8948627586153796
  0.7680551519061861  0.4365741198364880  0.7104015972926996
  0.2167270412944501  0.6231458421510513  0.6486368532945875
  0.8929612634323963  0.5817996957336173  0.9018661855487489
  0.7839536328668535  0.7540460889141540  0.2959578444598581
  0.3608981735355365  0.5418943627002284  0.8550598638737986
  0.5216267036996661  0.7866194310861434  0.1872519348823209
  0.9636388480678546  0.5106959880420852  0.0598562245637413
  0.1318586450176277  0.7813354736124800  0.7027293423343587
  0.0773805092409316  0.6732062317632508  0.1193201568993925
  0.0533618777234606  0.9740478368354476  0.9629438058207394
  0.9804244357795993  0.4208504327541829  0.3880869615568497
  0.9381658554502686  0.0808460036763823  0.3633750233531851
  0.8303914771453148  0.9514237256767305  0.9598253849242170
  0.9895378372661406  0.9157548371263676  0.5809409886452417
  0.2727652295641121  0.5710519760769078  0.2154386118033129
  0.8483158498178203  0.5869794529133530  0.5626285520480870
  0.4754860973684195  0.7485954218086902  0.5324472404887413
  0.2599950069063957  0.1098042634072377  0.7488766321557143
  0.0560471342242543  0.5492569910441664  0.4983237565318623
  0.2598359102505245  0.2722981086935062  0.6482307924442441
  0.5064421287426816  0.6482674623140446  0.9770695778020114
  0.7557420160426488  0.5161550332189691  0.0601175107365320
  0.2583200489617256  0.7333705677399478  0.8504054700750626
  0.8037217588581600  0.1113834966075350  0.0981351946757631
  0.0320574063671854  0.4083077392615510  0.6812237034783407
  0.8844983394993150  0.3908309430466146  0.5687303804661724
  0.0102305960610991  0.6186339397565283  0.7155546834397591
  0.1355601726410948  0.3741507978950803  0.9594836066725799
  0.8148911594547271  0.9421424244919685  0.4340469482985155
  0.9938917069605989  0.3171988806230705  0.0428186994625678
  0.5573989395790344  0.4144883797866472  0.2209659072674676
  0.6664449256625156  0.3470130777163966  0.5441455336493887
  0.7450549950363508  0.8489928622252606  0.6588698666602607
  0.4188845343550444  0.6589181174742474  0.7275321694763880
  0.2507189597017943  0.0024842116245306  0.9935891024659590
  0.7161301766171984  0.4490801295061861  0.9040665075647526
  0.0788777329391456  0.9485884669800134  0.3778442602732324
  0.3385946107078392  0.8354653218100669  0.6574526833041183
  0.1769051972878558  0.5272798734880173  0.0435238851624539
  0.5380767644528672  0.3045137997036010  0.3898488132663196
  0.6092670380132769  0.7063879547692808  0.6719791544062799
  0.4775153902522948  0.0590706339484987  0.9720101168692332
  0.3696133813521030  0.9369933539972813  0.8386816740052355
  0.1883102342404065  0.9591378880782119  0.6130978574159084
  0.1609477225512872  0.1216844393859506  0.4911181826262146
  0.4534337547835706  0.6153455746515228  0.3534303656756684
  0.8968120245482817  0.7513435926188964  0.6399443037513758
  0.8886900741037341  0.5715963296749537  0.2836650042594747
  0.1855770894676893  0.8116971709283038  0.2626759588515531
  0.8038289762201144  0.0178296607733683  0.6121813734709004
  0.0828795909149806  0.2835814773150476  0.5083223626479519
  0.5271083241737456  0.1328373423560717  0.2890901252507183
  0.7583950617035704  0.8730131033522858  0.1186977917150039
  0.5896075009509579  0.7494716886454802  0.3766462841279989
  0.1376873014613930  0.6555806526488654  0.3465553497583997
  0.5956074961977869  0.5727501990414975  0.8290968572466539
  0.5852761657045317  0.9988616268022896  0.8302146172762289
  0.8894967066577126  0.9615885280151674  0.2206713778611898
  0.2701681520645962  0.5122555894318138  0.3933365246846700
  0.2176967700877195  0.8401892116189312  0.4571095242036792
  0.4279244773367227  0.2168650815116730  0.7887448581717538
  0.3274416960374726  0.7457302064217084  0.1727611436642381
  0.3230922444193198  0.4580843435474177  0.6792203007743695
  0.9960644252138280  0.8020570292332863  0.2625075858758971
  0.1830843470754093  0.9279143039028348  0.8090990615522221
  0.3664454769843351  0.7888762674466889  0.3524160376141653
  0.1672542354911565  0.5116401557355720  0.8126061479631447
  0.2818791946812340  0.0113592945257666  0.3475951048182563
  0.9551546447232874  0.2267810240905353  0.7634117866266398
  0.1214015761807743  0.1661611161399617  0.9380737054846215
  0.1816510937946773  0.4236286078977595  0.5634177711435793
  0.3466613000499775  0.1918381114584334  0.3011242445107838
  0.7948434819644807  0.0580318260290945  0.7963276466598731
  0.9149750326836252  0.1781387488589188  0.9477137360880856
  0.3654138440910879  0.4106061696618779  0.0135557356820557
  0.6942982225703352  0.6954008614456566  0.9531104379472736
  0.7767332105658197  0.6636400266788642  0.7605582021347023
  0.3272435312991950  0.6364310780341861  0.0120525233597091
  0.4653340266155478  0.9490786471472206  0.3088454617635907
  0.5589169049791348  0.9028161455502507  0.6669128856626079
  0.1162614778892136  0.9676414777315058  0.1649779160262741
  0.7432674139183130  0.0970393119621744  0.3197324274259329
  0.5378309292803815  0.2558442045835988  0.9506134487469695
  0.0865923910673784  0.7478341905660747  0.5267916460868620
  0.8897909231651636  0.2407071642676765  0.4308158003788848
  0.5300021721758443  0.1116440310126378  0.4708780954573420
  0.9222178926939730  0.3820103837773498  0.8579429599334858
  0.6749488948261952  0.6002550870738175  0.5261389871331793
  0.3451142963647709  0.1690687992210976  0.5032440991169519
  0.7772694749946077  0.4608715156847069  0.4166348928808725
  0.6473907291459926  0.6389588876904549  0.1362026743324965
  0.4153678494711066  0.0480804787876072  0.6615312583125912
  0.4426695895663432  0.1879543674963715  0.1199544322828540
  0.3668546025132328  0.3879780936040670  0.2252816266468496
  0.5859769646488482  0.8753414282686750  0.0196410137364926
  0.6181739308642262  0.0906977110879016  0.6712158336467378
  0.4936037004154605  0.4096906477358554  0.8271686892966426
  0.5053131265215198  0.2574909366118900  0.6083494607718455
  0.6588535502668702  0.9219553847297530  0.2712585614289586
  0.5656883559900289  0.4472617059699425  0.0382581235687521
  0.6750260333869925  0.1381448788827173  0.9458719992561863
  0.3994616002439317  0.9685911885473757  0.1364439571732803
  0.5624025839510218  0.4807844230888375  0.4381363584499893
  0.9643218713535234  0.8477562425482322  0.7910774119205499
  0.5655949316196047  0.4583436858066536  0.6604780376025106
  0.7746113768453504  0.7664168495775072  0.4900765345961548
  0.7563926395726976  0.4304551048052270  0.2245518371483203
  0.7000374729449704  0.8526433518467468  0.8407984642177675
  0.2924605345330306  0.6650211323207847  0.4894859681127340
 
  0.00000000E+00  0.00000000E+00  0.00000000E+00
  0.00000000E+00  0.00000000E+00  0.00000000E+00
  0.00000000E+00  0.00000000E+00  0.00000000E+00
  0.00000000E+00  0.00000000E+00  0.00000000E+00
  0.00000000E+00  0.00000000E+00  0.00000000E+00
  0.00000000E+00  0.00000000E+00  0.00000000E+00
  0.00000000E+00  0.00000000E+00  0.00000000E+00
  0.00000000E+00  0.00000000E+00  0.00000000E+00
  0.00000000E+00  0.00000000E+00  0.00000000E+00
  0.00000000E+00  0.00000000E+00  0.00000000E+00
  0.00000000E+00  0.00000000E+00  0.00000000E+00
  0.00000000E+00  0.00000000E+00  0.00000000E+00
  0.00000000E+00  0.00000000E+00  0.00000000E+00
  0.00000000E+00  0.00000000E+00  0.00000000E+00
  0.00000000E+00  0.00000000E+00  0.00000000E+00
  0.00000000E+00  0.00000000E+00  0.00000000E+00
  0.00000000E+00  0.00000000E+00  0.00000000E+00
  0.00000000E+00  0.00000000E+00  0.00000000E+00
  0.00000000E+00  0.00000000E+00  0.00000000E+00
  0.00000000E+00  0.00000000E+00  0.00000000E+00
  0.00000000E+00  0.00000000E+00  0.00000000E+00
  0.00000000E+00  0.00000000E+00  0.00000000E+00
  0.00000000E+00  0.00000000E+00  0.00000000E+00
  0.00000000E+00  0.00000000E+00  0.00000000E+00
  0.00000000E+00  0.00000000E+00  0.00000000E+00
  0.00000000E+00  0.00000000E+00  0.00000000E+00
  0.00000000E+00  0.00000000E+00  0.00000000E+00
  0.00000000E+00  0.00000000E+00  0.00000000E+00
  0.00000000E+00  0.00000000E+00  0.00000000E+00
  0.00000000E+00  0.00000000E+00  0.00000000E+00
  0.00000000E+00  0.00000000E+00  0.00000000E+00
  0.00000000E+00  0.00000000E+00  0.00000000E+00
  0.00000000E+00  0.00000000E+00  0.00000000E+00
  0.00000000E+00  0.00000000E+00  0.00000000E+00
  0.00000000E+00  0.00000000E+00  0.00000000E+00
  0.00000000E+00  0.00000000E+00  0.00000000E+00
  0.00000000E+00  0.00000000E+00  0.00000000E+00
  0.00000000E+00  0.00000000E+00  0.00000000E+00
  0.00000000E+00  0.00000000E+00  0.00000000E+00
  0.00000000E+00  0.00000000E+00  0.00000000E+00
  0.00000000E+00  0.00000000E+00  0.00000000E+00
  0.00000000E+00  0.00000000E+00  0.00000000E+00
  0.00000000E+00  0.00000000E+00  0.00000000E+00
  0.00000000E+00  0.00000000E+00  0.00000000E+00
  0.00000000E+00  0.00000000E+00  0.00000000E+00
  0.00000000E+00  0.00000000E+00  0.00000000E+00
  0.00000000E+00  0.00000000E+00  0.00000000E+00
  0.00000000E+00  0.00000000E+00  0.00000000E+00
  0.00000000E+00  0.00000000E+00  0.00000000E+00
  0.00000000E+00  0.00000000E+00  0.00000000E+00
  0.00000000E+00  0.00000000E+00  0.00000000E+00
  0.00000000E+00  0.00000000E+00  0.00000000E+00
  0.00000000E+00  0.00000000E+00  0.00000000E+00
  0.00000000E+00  0.00000000E+00  0.00000000E+00
  0.00000000E+00  0.00000000E+00  0.00000000E+00
  0.00000000E+00  0.00000000E+00  0.00000000E+00
  0.00000000E+00  0.00000000E+00  0.00000000E+00
  0.00000000E+00  0.00000000E+00  0.00000000E+00
  0.00000000E+00  0.00000000E+00  0.00000000E+00
  0.00000000E+00  0.00000000E+00  0.00000000E+00
  0.00000000E+00  0.00000000E+00  0.00000000E+00
  0.00000000E+00  0.00000000E+00  0.00000000E+00
  0.00000000E+00  0.00000000E+00  0.00000000E+00
  0.00000000E+00  0.00000000E+00  0.00000000E+00
  0.00000000E+00  0.00000000E+00  0.00000000E+00
  0.00000000E+00  0.00000000E+00  0.00000000E+00
  0.00000000E+00  0.00000000E+00  0.00000000E+00
  0.00000000E+00  0.00000000E+00  0.00000000E+00
  0.00000000E+00  0.00000000E+00  0.00000000E+00
  0.00000000E+00  0.00000000E+00  0.00000000E+00
  0.00000000E+00  0.00000000E+00  0.00000000E+00
  0.00000000E+00  0.00000000E+00  0.00000000E+00
  0.00000000E+00  0.00000000E+00  0.00000000E+00
  0.00000000E+00  0.00000000E+00  0.00000000E+00
  0.00000000E+00  0.00000000E+00  0.00000000E+00
  0.00000000E+00  0.00000000E+00  0.00000000E+00
  0.00000000E+00  0.00000000E+00  0.00000000E+00
  0.00000000E+00  0.00000000E+00  0.00000000E+00
  0.00000000E+00  0.00000000E+00  0.00000000E+00
  0.00000000E+00  0.00000000E+00  0.00000000E+00
  0.00000000E+00  0.00000000E+00  0.00000000E+00
  0.00000000E+00  0.00000000E+00  0.00000000E+00
  0.00000000E+00  0.00000000E+00  0.00000000E+00
  0.00000000E+00  0.00000000E+00  0.00000000E+00
  0.00000000E+00  0.00000000E+00  0.00000000E+00
  0.00000000E+00  0.00000000E+00  0.00000000E+00
  0.00000000E+00  0.00000000E+00  0.00000000E+00
  0.00000000E+00  0.00000000E+00  0.00000000E+00
  0.00000000E+00  0.00000000E+00  0.00000000E+00
  0.00000000E+00  0.00000000E+00  0.00000000E+00
  0.00000000E+00  0.00000000E+00  0.00000000E+00
  0.00000000E+00  0.00000000E+00  0.00000000E+00
  0.00000000E+00  0.00000000E+00  0.00000000E+00
  0.00000000E+00  0.00000000E+00  0.00000000E+00
  0.00000000E+00  0.00000000E+00  0.00000000E+00
  0.00000000E+00  0.00000000E+00  0.00000000E+00
  0.00000000E+00  0.00000000E+00  0.00000000E+00
  0.00000000E+00  0.00000000E+00  0.00000000E+00
  0.00000000E+00  0.00000000E+00  0.00000000E+00
  0.00000000E+00  0.00000000E+00  0.00000000E+00
  0.00000000E+00  0.00000000E+00  0.00000000E+00
  0.00000000E+00  0.00000000E+00  0.00000000E+00
  0.00000000E+00  0.00000000E+00  0.00000000E+00
  0.00000000E+00  0.00000000E+00  0.00000000E+00
  0.00000000E+00  0.00000000E+00  0.00000000E+00
  0.00000000E+00  0.00000000E+00  0.00000000E+00
  0.00000000E+00  0.00000000E+00  0.00000000E+00
  0.00000000E+00  0.00000000E+00  0.00000000E+00
  0.00000000E+00  0.00000000E+00  0.00000000E+00
  0.00000000E+00  0.00000000E+00  0.00000000E+00
  0.00000000E+00  0.00000000E+00  0.00000000E+00
  0.00000000E+00  0.00000000E+00  0.00000000E+00
  0.00000000E+00  0.00000000E+00  0.00000000E+00
  0.00000000E+00  0.00000000E+00  0.00000000E+00
  0.00000000E+00  0.00000000E+00  0.00000000E+00
  0.00000000E+00  0.00000000E+00  0.00000000E+00
  0.00000000E+00  0.00000000E+00  0.00000000E+00
  0.00000000E+00  0.00000000E+00  0.00000000E+00
  0.00000000E+00  0.00000000E+00  0.00000000E+00
  0.00000000E+00  0.00000000E+00  0.00000000E+00
  0.00000000E+00  0.00000000E+00  0.00000000E+00
  0.00000000E+00  0.00000000E+00  0.00000000E+00
  0.00000000E+00  0.00000000E+00  0.00000000E+00
  0.00000000E+00  0.00000000E+00  0.00000000E+00
  0.00000000E+00  0.00000000E+00  0.00000000E+00
  0.00000000E+00  0.00000000E+00  0.00000000E+00
  0.00000000E+00  0.00000000E+00  0.00000000E+00
  0.00000000E+00  0.00000000E+00  0.00000000E+00
  0.00000000E+00  0.00000000E+00  0.00000000E+00
  0.00000000E+00  0.00000000E+00  0.00000000E+00
  0.00000000E+00  0.00000000E+00  0.00000000E+00
  0.00000000E+00  0.00000000E+00  0.00000000E+00
  0.00000000E+00  0.00000000E+00  0.00000000E+00
  0.00000000E+00  0.00000000E+00  0.00000000E+00
  0.00000000E+00  0.00000000E+00  0.00000000E+00
  0.00000000E+00  0.00000000E+00  0.00000000E+00
  0.00000000E+00  0.00000000E+00  0.00000000E+00
  0.00000000E+00  0.00000000E+00  0.00000000E+00
  0.00000000E+00  0.00000000E+00  0.00000000E+00
  0.00000000E+00  0.00000000E+00  0.00000000E+00
  0.00000000E+00  0.00000000E+00  0.00000000E+00
  0.00000000E+00  0.00000000E+00  0.00000000E+00
  0.00000000E+00  0.00000000E+00  0.00000000E+00
  0.00000000E+00  0.00000000E+00  0.00000000E+00
  0.00000000E+00  0.00000000E+00  0.00000000E+00
  0.00000000E+00  0.00000000E+00  0.00000000E+00
  0.00000000E+00  0.00000000E+00  0.00000000E+00
  0.00000000E+00  0.00000000E+00  0.00000000E+00
  0.00000000E+00  0.00000000E+00  0.00000000E+00
  0.00000000E+00  0.00000000E+00  0.00000000E+00
  0.00000000E+00  0.00000000E+00  0.00000000E+00
  0.00000000E+00  0.00000000E+00  0.00000000E+00
  0.00000000E+00  0.00000000E+00  0.00000000E+00
  0.00000000E+00  0.00000000E+00  0.00000000E+00
  0.00000000E+00  0.00000000E+00  0.00000000E+00
  0.00000000E+00  0.00000000E+00  0.00000000E+00
  0.00000000E+00  0.00000000E+00  0.00000000E+00
  0.00000000E+00  0.00000000E+00  0.00000000E+00
  0.00000000E+00  0.00000000E+00  0.00000000E+00
  0.00000000E+00  0.00000000E+00  0.00000000E+00
  0.00000000E+00  0.00000000E+00  0.00000000E+00
  0.00000000E+00  0.00000000E+00  0.00000000E+00
  0.00000000E+00  0.00000000E+00  0.00000000E+00
  0.00000000E+00  0.00000000E+00  0.00000000E+00
  0.00000000E+00  0.00000000E+00  0.00000000E+00
  0.00000000E+00  0.00000000E+00  0.00000000E+00
  0.00000000E+00  0.00000000E+00  0.00000000E+00
  0.00000000E+00  0.00000000E+00  0.00000000E+00
  0.00000000E+00  0.00000000E+00  0.00000000E+00
  0.00000000E+00  0.00000000E+00  0.00000000E+00
  0.00000000E+00  0.00000000E+00  0.00000000E+00
  0.00000000E+00  0.00000000E+00  0.00000000E+00
  0.00000000E+00  0.00000000E+00  0.00000000E+00
  0.00000000E+00  0.00000000E+00  0.00000000E+00
  0.00000000E+00  0.00000000E+00  0.00000000E+00
  0.00000000E+00  0.00000000E+00  0.00000000E+00
  0.00000000E+00  0.00000000E+00  0.00000000E+00
  0.00000000E+00  0.00000000E+00  0.00000000E+00
  0.00000000E+00  0.00000000E+00  0.00000000E+00
  0.00000000E+00  0.00000000E+00  0.00000000E+00
  0.00000000E+00  0.00000000E+00  0.00000000E+00
  0.00000000E+00  0.00000000E+00  0.00000000E+00
  0.00000000E+00  0.00000000E+00  0.00000000E+00
  0.00000000E+00  0.00000000E+00  0.00000000E+00
  0.00000000E+00  0.00000000E+00  0.00000000E+00
  0.00000000E+00  0.00000000E+00  0.00000000E+00
  0.00000000E+00  0.00000000E+00  0.00000000E+00
  0.00000000E+00  0.00000000E+00  0.00000000E+00
  0.00000000E+00  0.00000000E+00  0.00000000E+00
  0.00000000E+00  0.00000000E+00  0.00000000E+00
  0.00000000E+00  0.00000000E+00  0.00000000E+00
  0.00000000E+00  0.00000000E+00  0.00000000E+00
  0.00000000E+00  0.00000000E+00  0.00000000E+00
  0.00000000E+00  0.00000000E+00  0.00000000E+00
  0.00000000E+00  0.00000000E+00  0.00000000E+00
  0.00000000E+00  0.00000000E+00  0.00000000E+00
  0.00000000E+00  0.00000000E+00  0.00000000E+00
  0.00000000E+00  0.00000000E+00  0.00000000E+00
  0.00000000E+00  0.00000000E+00  0.00000000E+00
  0.00000000E+00  0.00000000E+00  0.00000000E+00
  0.00000000E+00  0.00000000E+00  0.00000000E+00
  0.00000000E+00  0.00000000E+00  0.00000000E+00
  0.00000000E+00  0.00000000E+00  0.00000000E+00
  0.00000000E+00  0.00000000E+00  0.00000000E+00
  0.00000000E+00  0.00000000E+00  0.00000000E+00
  0.00000000E+00  0.00000000E+00  0.00000000E+00
  0.00000000E+00  0.00000000E+00  0.00000000E+00
  0.00000000E+00  0.00000000E+00  0.00000000E+00
  0.00000000E+00  0.00000000E+00  0.00000000E+00
  0.00000000E+00  0.00000000E+00  0.00000000E+00
  0.00000000E+00  0.00000000E+00  0.00000000E+00
  0.00000000E+00  0.00000000E+00  0.00000000E+00
  0.00000000E+00  0.00000000E+00  0.00000000E+00
  0.00000000E+00  0.00000000E+00  0.00000000E+00
