fcc:                                    
   1.00000000000000     
    12.7618731155709995    0.0000000000000000    0.0000000000000000
     0.0000000000000000   12.7618731155709995    0.0000000000000000
     0.0000000000000000    0.0000000000000000   12.7618731155709995
   Ti   O 
    72   126
Direct
  0.4623052259033334  0.3715839625989963  0.6862821798696257
  0.8745472868115308  0.8177631867022115  0.3516906588122253
  0.9353754013903829  0.1861229496445441  0.6760203220388395
  0.6693560600304599  0.2208444899169736  0.6463613986404799
  0.9912732794731596  0.4856503810032338  0.9898489746944094
  0.4385055041820762  0.9418631811741253  0.3362192963316563
  0.4101910806354710  0.5308471378977127  0.4472231541090536
  0.2326657932967881  0.3292668257091044  0.3738904320160891
  0.5312480421987474  0.8725242909563780  0.0937169757067877
  0.8937967319668555  0.7980085204845220  0.9474276428674248
  0.4789964812878465  0.4474927922322133  0.0172351017964089
  0.1319324545047953  0.8837136244171901  0.2990375573300371
  0.0146325467085446  0.2260999173904032  0.3307346085036236
  0.6059616985783510  0.7340006307913175  0.3924469174501540
  0.6427753859732743  0.4886284737413091  0.2496123846281350
  0.8285582073075888  0.3295351985866291  0.5067034159423645
  0.2925926466348949  0.5244832041408496  0.2172215410026974
  0.1286801451965088  0.7067764485374434  0.0835422656800712
  0.8451442972189414  0.0367365418760766  0.4990714236383382
  0.1115539849932533  0.3245700139198817  0.1337557090309713
  0.6377313793968351  0.1356632974851376  0.3807660623967006
  0.1825912537341143  0.6987667353444359  0.5355783618140698
  0.9162832900165102  0.5599794196847148  0.1906735769615651
  0.2866852204716545  0.7629676190587820  0.7510394573637570
  0.3546829705940543  0.0053952181703328  0.9171375951616352
  0.9211882366978762  0.0268458671774755  0.8846388812022120
  0.4695258783693660  0.6076597114848604  0.8073459902780866
  0.2538570663746253  0.4913168091947926  0.6779324114739552
  0.6716188942787699  0.4751489470598555  0.8038969719704437
  0.1663733929102671  0.1031765367231128  0.7431432238815587
  0.2173784309225004  0.2738415865396155  0.5907007914955421
  0.8886820919079560  0.2075978124905696  0.0799127431285933
  0.2319210329440920  0.1054189736031207  0.3220939921123098
  0.6191299441991437  0.2194022443956901  0.1122858440936163
  0.7710173745870700  0.8743258352941964  0.7089845523804845
  0.1073993840852097  0.3691931777437887  0.8233063414560220
  0.3624962994980377  0.7213950495369466  0.9983851806480755
  0.3493650192462076  0.1676217353796158  0.1302566899445367
  0.3103625199565446  0.7338824179581549  0.3074880663806319
  0.8327667102189178  0.6361124889552614  0.7885186414517262
  0.0261681155503868  0.4473045818707933  0.4485945202467722
  0.0716264198050406  0.0719282205755957  0.5085690591800249
  0.5864193368194460  0.2536240989406235  0.8803880478172456
  0.9511726541744053  0.4563007594472204  0.6799355293897875
  0.9513798638572384  0.9465963141789875  0.1140841687580845
  0.8460317581842526  0.2890329113943495  0.8629553424325448
  0.3057662618732759  0.9016843672775792  0.1302536219268570
  0.1314693074754586  0.0956833942985894  0.0880382150384404
  0.7909976962878436  0.3261246067470336  0.2699037684856911
  0.5902841763315149  0.9633126991134595  0.5591117774399742
  0.5025656009966464  0.6253434226923513  0.1598763266583516
  0.9280877178409839  0.7289116646407106  0.5879887061720378
  0.5028511893601690  0.8547012908866525  0.8163046969374814
  0.6054157120428065  0.3696536440408006  0.4529111267725269
  0.6334171820761636  0.6695757034147820  0.6039253957940239
  0.0632373094201910  0.8929150716443208  0.7038717744004909
  0.7274566296167903  0.7649829249142681  0.1890324762835787
  0.4573829399015836  0.3346775355494501  0.2725367567548943
  0.4312236786094739  0.1639528169179989  0.5050444464492223
  0.6706905535130606  0.7314579281899466  0.9519828937607290
  0.2362581891180716  0.4946512273648202  0.9888315932673559
  0.4439342823640950  0.1267544459261868  0.7308084001682827
  0.3001190663312420  0.9776735301825472  0.5546793862676498
  0.8240558390395631  0.5760306966207251  0.4079895008770967
  0.6504849884798907  0.0206146388314766  0.8666585433121908
  0.7545075147909676  0.4533111492724179  0.0326685088338157
  0.3150597688193020  0.2451021337216981  0.9104580777862823
  0.7510347035531012  0.0069887333974590  0.2247884965867437
  0.0635217800835409  0.6600561147243483  0.3437009892589436
  0.0873167035233356  0.6267063062407836  0.8101003990090434
  0.1224594211940540  0.8935566435700939  0.9320343819746588
  0.4223836182066347  0.7567650542568821  0.5446779360758027
  0.8033412055612198  0.4848058405033565  0.7377037397303167
  0.7177295851105500  0.8182630385982075  0.3501848343286235
  0.9531683555413616  0.6835732919648111  0.8758947377930227
  0.6153291288096444  0.5179960908777053  0.0995825827865147
  0.1056145215083354  0.3594461693493481  0.2971525108752469
  0.7891152600228779  0.4686377998274002  0.1933219836338202
  0.1710414486794017  0.7741531351643365  0.4023601563248935
  0.3245856635129932  0.2776630657269086  0.4833649087870522
  0.6040036686052832  0.3518055269536060  0.7410598461856167
  0.3300808604979291  0.6584700632244526  0.8539082110446449
  0.7937458730050108  0.7476915162333877  0.0461868129227857
  0.1485685407339804  0.1910872671536855  0.4188999776770089
  0.9167554722808166  0.9145650800250976  0.4472863780618206
  0.9536982181625929  0.0419829505807857  0.6048520696452983
  0.4532844475903271  0.0286514917523813  0.6046388313870730
  0.2926592165294556  0.1380170546623977  0.6209855305819487
  0.6211886552182723  0.9035436517555313  0.7249876731713303
  0.0376498080781959  0.6431242637607888  0.1790753804429918
  0.1935208984439481  0.7876973059055834  0.1957179421141052
  0.1146957143958104  0.3871153114196327  0.9767271546104601
  0.3312994233432641  0.4333125504065449  0.3417747068582167
  0.4865028012968298  0.7989316986905247  0.3316920301661712
  0.3462103289879970  0.8846831700368182  0.8076167031138547
  0.0210010246205991  0.8105403609618487  0.0404540085196382
  0.6525764016214616  0.9094656027973455  0.1667157658921689
  0.8333947070147513  0.6683123377355055  0.2606430605153796
  0.4095734772060053  0.8863961726721186  0.9977287469701840
  0.2073922248273663  0.4906394226074720  0.8300261733052862
  0.0779087488072185  0.9764042568549833  0.1946245489983436
  0.7767954835859513  0.7841466857645129  0.8432315437842280
  0.1041445740458768  0.5979028332368835  0.9765843358565763
  0.8501426012274579  0.9393301509126548  0.9921973171706372
  0.6081587558016697  0.8907216844713515  0.9557521688122257
  0.3996857773695001  0.1308865765701565  0.9894303099512225
  0.0757740766014466  0.7835034169393362  0.5891351189821242
  0.9622055884948514  0.5292606176587451  0.3324207956812386
  0.3016962917778268  0.4996850171002737  0.5417351776970256
  0.4434042877348628  0.2694277461583441  0.8184375278822961
  0.3066318345240517  0.2385175423492091  0.2754712806768994
  0.7154351024615582  0.3601613582145188  0.9026137923826056
  0.1123111357427344  0.1788776286368998  0.2246172083108213
  0.6247744933484141  0.1240472614738857  0.5366154412271643
  0.5962347717232859  0.7333563836788364  0.0943324340096081
  0.7264047936329918  0.2585752932393436  0.3981109600837040
  0.4394033641808958  0.5925360869857946  0.0164628239245867
  0.4819545728008013  0.2158204863617169  0.1755614176689645
  0.0103410260863893  0.8038130937877009  0.2919202134765541
  0.0331085374017318  0.0229900313844951  0.9914794122733166
  0.4528154120793048  0.9710937951754243  0.1843524370797250
  0.4310423808466124  0.4551500189670006  0.1615248877921276
  0.0112529313746966  0.0993820259155604  0.7887357449045376
  0.4055151994369135  0.6100155424071744  0.2849359310225547
  0.6540303674495561  0.1314438761548992  0.2289041544345895
  0.5128838205927368  0.6333422987065318  0.4917248046314822
  0.3928169614995217  0.8902787640912738  0.4742648677919470
  0.0965235156518389  0.1885654691238305  0.6265162283512898
  0.4945858386318915  0.4296906735189758  0.5482436289890097
  0.8119824014856619  0.1803119000674201  0.5617408604897620
  0.2984389621431318  0.8961535841804322  0.2923487782656619
  0.6998930334670045  0.3550020226093606  0.5774961934704307
  0.9213496061117603  0.3329915866343450  0.3897584311910511
  0.2614849223287035  0.6163538518146328  0.0936846317142472
  0.8539499932231753  0.1609948970145244  0.9361020516844502
  0.9546624944542591  0.1188575335254009  0.4069096245080472
  0.8933910006238941  0.3678437932056852  0.9827447051667654
  0.2261627677437908  0.4197761354442225  0.1369419399507684
  0.8769525170135107  0.5630183159345136  0.0433514795466164
  0.4061269703053367  0.7664666034214256  0.1487119134106674
  0.7934330167737143 -0.0003271229511026  0.7993325192915665
  0.1539751070224921  0.9944649463077455  0.3996900753015009
  0.5575222763764677  0.3240940222951554  0.0198184488542302
  0.4985742844761346  0.2377641529385393  0.6255427768064172
  0.6255418656048365  0.6412673428627054  0.2701764726172192
  0.3084987305054411  0.1063146250081015  0.8147078544903824
  0.2272852075355114  0.7978131924966981  0.0056052006556681
  0.2268948513943802  0.2269630675758551  0.0552417778464444
  0.9138284838250463  0.8533206210464259  0.6755972579528763
  0.5181277351610027  0.2407327688157925  0.3950460950683272
  0.5245126319951191  0.4616212261544312  0.3514539912588619
  0.2006926842352378  0.5981903975681744  0.2976356157517119
  0.9442023313676495  0.3238114185605525  0.5973382761910869
  0.8633340832017319  0.0789006163434471  0.1455228479797776
  0.5997415618454978  0.5815672518775031  0.7219106684302942
  0.8473023011796478  0.8802011283841770  0.2149560977550837
  0.7252551173946811  0.5779571918340490  0.9045126372253457
  0.1628387109432897  0.9744863504847527  0.8060644434295284
  0.7582531542530710  0.2857268823893477  0.1041559482296269
  0.1490398272082314  0.3695288229495771  0.4921599869924110
  0.6105458899652838  0.1420185895383010  0.7624585071722212
  0.0960421443136256  0.5901443851225270  0.4887399408653977
  0.7079312707675667  0.6457956654877660  0.4725054927582659
  0.7483417150767987  0.9506249389182566  0.5768713713719625
  0.5347351075892487  0.4871254874461733  0.8796783530236205
  0.3255144293800954  0.6692031788079279  0.4594646978882085
  0.0305601004640482  0.2208362373503818  0.0502088852151954
  0.7733049423174178  0.7194133661514778  0.6590433908270248
  0.3092991395602822  0.3418814004095141  0.6842168301355009
  0.9216508841821972  0.2603100201677040  0.2171039637157553
  0.0099988595748024  0.4416028696603830  0.1346208758774376
  0.5283442429516082  0.7198518316601655  0.8900094627550005
  0.9724348515454633  0.3067509062561537  0.7874780231379931
  0.9678255376077742  0.6148659725197277  0.6903219967068063
  0.3990455401953788  0.5069007977675488  0.7241318632517626
  0.6224973249053034  0.3416458348459228  0.2301378325427272
  0.7608619444124601  0.0465408663310388  0.3756878442661035
  0.8864640517681197  0.4859128057628445  0.5247206941275304
  0.5575166309475340  0.0059079529513035  0.3976613189523774
  0.1769538308342741  0.2408093768446925  0.8242146346505114
  0.2320554824428785  0.9927227831475565  0.0042789775036004
  0.3522289405844413  0.3914420399042512  0.9608000744921104
  0.9817253186406689  0.8915468080608104  0.8500422655482549
  0.2612758268854223  0.0533859857194571  0.1855879693386860
  0.7306124000459443  0.4481162489027474  0.3789367176712385
  0.9210411266979636  0.7007223440934683  0.4393488814100829
  0.1200229682163301  0.4106375550957595  0.6751338320671170
  0.4500138897812542  0.7315181695897351  0.7034329099162765
  0.2064716768869362  0.6356522810660590  0.6806430524563145
  0.1453770013487641  0.7790623987085942  0.8043189554861242
  0.7893504735104346  0.2317089963461763  0.7417945024893083
  0.5828571046237155  0.8058963794436325  0.5334546467645120
  0.1564844140554983  0.9929343805418614  0.6192410904563945
  0.3521710724371284  0.0681932928717735  0.4028922586102023
  0.2805377247121483  0.8141380297543777  0.6093629128394191
  0.4904939557610690  0.0148201490711507  0.8432333768963304
  0.9992040392695538  0.4885921012137645  0.8369514918640245
  0.6345249845892476  0.1393759470488961  0.9840913078536059
 
  0.00000000E+00  0.00000000E+00  0.00000000E+00
  0.00000000E+00  0.00000000E+00  0.00000000E+00
  0.00000000E+00  0.00000000E+00  0.00000000E+00
  0.00000000E+00  0.00000000E+00  0.00000000E+00
  0.00000000E+00  0.00000000E+00  0.00000000E+00
  0.00000000E+00  0.00000000E+00  0.00000000E+00
  0.00000000E+00  0.00000000E+00  0.00000000E+00
  0.00000000E+00  0.00000000E+00  0.00000000E+00
  0.00000000E+00  0.00000000E+00  0.00000000E+00
  0.00000000E+00  0.00000000E+00  0.00000000E+00
  0.00000000E+00  0.00000000E+00  0.00000000E+00
  0.00000000E+00  0.00000000E+00  0.00000000E+00
  0.00000000E+00  0.00000000E+00  0.00000000E+00
  0.00000000E+00  0.00000000E+00  0.00000000E+00
  0.00000000E+00  0.00000000E+00  0.00000000E+00
  0.00000000E+00  0.00000000E+00  0.00000000E+00
  0.00000000E+00  0.00000000E+00  0.00000000E+00
  0.00000000E+00  0.00000000E+00  0.00000000E+00
  0.00000000E+00  0.00000000E+00  0.00000000E+00
  0.00000000E+00  0.00000000E+00  0.00000000E+00
  0.00000000E+00  0.00000000E+00  0.00000000E+00
  0.00000000E+00  0.00000000E+00  0.00000000E+00
  0.00000000E+00  0.00000000E+00  0.00000000E+00
  0.00000000E+00  0.00000000E+00  0.00000000E+00
  0.00000000E+00  0.00000000E+00  0.00000000E+00
  0.00000000E+00  0.00000000E+00  0.00000000E+00
  0.00000000E+00  0.00000000E+00  0.00000000E+00
  0.00000000E+00  0.00000000E+00  0.00000000E+00
  0.00000000E+00  0.00000000E+00  0.00000000E+00
  0.00000000E+00  0.00000000E+00  0.00000000E+00
  0.00000000E+00  0.00000000E+00  0.00000000E+00
  0.00000000E+00  0.00000000E+00  0.00000000E+00
  0.00000000E+00  0.00000000E+00  0.00000000E+00
  0.00000000E+00  0.00000000E+00  0.00000000E+00
  0.00000000E+00  0.00000000E+00  0.00000000E+00
  0.00000000E+00  0.00000000E+00  0.00000000E+00
  0.00000000E+00  0.00000000E+00  0.00000000E+00
  0.00000000E+00  0.00000000E+00  0.00000000E+00
  0.00000000E+00  0.00000000E+00  0.00000000E+00
  0.00000000E+00  0.00000000E+00  0.00000000E+00
  0.00000000E+00  0.00000000E+00  0.00000000E+00
  0.00000000E+00  0.00000000E+00  0.00000000E+00
  0.00000000E+00  0.00000000E+00  0.00000000E+00
  0.00000000E+00  0.00000000E+00  0.00000000E+00
  0.00000000E+00  0.00000000E+00  0.00000000E+00
  0.00000000E+00  0.00000000E+00  0.00000000E+00
  0.00000000E+00  0.00000000E+00  0.00000000E+00
  0.00000000E+00  0.00000000E+00  0.00000000E+00
  0.00000000E+00  0.00000000E+00  0.00000000E+00
  0.00000000E+00  0.00000000E+00  0.00000000E+00
  0.00000000E+00  0.00000000E+00  0.00000000E+00
  0.00000000E+00  0.00000000E+00  0.00000000E+00
  0.00000000E+00  0.00000000E+00  0.00000000E+00
  0.00000000E+00  0.00000000E+00  0.00000000E+00
  0.00000000E+00  0.00000000E+00  0.00000000E+00
  0.00000000E+00  0.00000000E+00  0.00000000E+00
  0.00000000E+00  0.00000000E+00  0.00000000E+00
  0.00000000E+00  0.00000000E+00  0.00000000E+00
  0.00000000E+00  0.00000000E+00  0.00000000E+00
  0.00000000E+00  0.00000000E+00  0.00000000E+00
  0.00000000E+00  0.00000000E+00  0.00000000E+00
  0.00000000E+00  0.00000000E+00  0.00000000E+00
  0.00000000E+00  0.00000000E+00  0.00000000E+00
  0.00000000E+00  0.00000000E+00  0.00000000E+00
  0.00000000E+00  0.00000000E+00  0.00000000E+00
  0.00000000E+00  0.00000000E+00  0.00000000E+00
  0.00000000E+00  0.00000000E+00  0.00000000E+00
  0.00000000E+00  0.00000000E+00  0.00000000E+00
  0.00000000E+00  0.00000000E+00  0.00000000E+00
  0.00000000E+00  0.00000000E+00  0.00000000E+00
  0.00000000E+00  0.00000000E+00  0.00000000E+00
  0.00000000E+00  0.00000000E+00  0.00000000E+00
  0.00000000E+00  0.00000000E+00  0.00000000E+00
  0.00000000E+00  0.00000000E+00  0.00000000E+00
  0.00000000E+00  0.00000000E+00  0.00000000E+00
  0.00000000E+00  0.00000000E+00  0.00000000E+00
  0.00000000E+00  0.00000000E+00  0.00000000E+00
  0.00000000E+00  0.00000000E+00  0.00000000E+00
  0.00000000E+00  0.00000000E+00  0.00000000E+00
  0.00000000E+00  0.00000000E+00  0.00000000E+00
  0.00000000E+00  0.00000000E+00  0.00000000E+00
  0.00000000E+00  0.00000000E+00  0.00000000E+00
  0.00000000E+00  0.00000000E+00  0.00000000E+00
  0.00000000E+00  0.00000000E+00  0.00000000E+00
  0.00000000E+00  0.00000000E+00  0.00000000E+00
  0.00000000E+00  0.00000000E+00  0.00000000E+00
  0.00000000E+00  0.00000000E+00  0.00000000E+00
  0.00000000E+00  0.00000000E+00  0.00000000E+00
  0.00000000E+00  0.00000000E+00  0.00000000E+00
  0.00000000E+00  0.00000000E+00  0.00000000E+00
  0.00000000E+00  0.00000000E+00  0.00000000E+00
  0.00000000E+00  0.00000000E+00  0.00000000E+00
  0.00000000E+00  0.00000000E+00  0.00000000E+00
  0.00000000E+00  0.00000000E+00  0.00000000E+00
  0.00000000E+00  0.00000000E+00  0.00000000E+00
  0.00000000E+00  0.00000000E+00  0.00000000E+00
  0.00000000E+00  0.00000000E+00  0.00000000E+00
  0.00000000E+00  0.00000000E+00  0.00000000E+00
  0.00000000E+00  0.00000000E+00  0.00000000E+00
  0.00000000E+00  0.00000000E+00  0.00000000E+00
  0.00000000E+00  0.00000000E+00  0.00000000E+00
  0.00000000E+00  0.00000000E+00  0.00000000E+00
  0.00000000E+00  0.00000000E+00  0.00000000E+00
  0.00000000E+00  0.00000000E+00  0.00000000E+00
  0.00000000E+00  0.00000000E+00  0.00000000E+00
  0.00000000E+00  0.00000000E+00  0.00000000E+00
  0.00000000E+00  0.00000000E+00  0.00000000E+00
  0.00000000E+00  0.00000000E+00  0.00000000E+00
  0.00000000E+00  0.00000000E+00  0.00000000E+00
  0.00000000E+00  0.00000000E+00  0.00000000E+00
  0.00000000E+00  0.00000000E+00  0.00000000E+00
  0.00000000E+00  0.00000000E+00  0.00000000E+00
  0.00000000E+00  0.00000000E+00  0.00000000E+00
  0.00000000E+00  0.00000000E+00  0.00000000E+00
  0.00000000E+00  0.00000000E+00  0.00000000E+00
  0.00000000E+00  0.00000000E+00  0.00000000E+00
  0.00000000E+00  0.00000000E+00  0.00000000E+00
  0.00000000E+00  0.00000000E+00  0.00000000E+00
  0.00000000E+00  0.00000000E+00  0.00000000E+00
  0.00000000E+00  0.00000000E+00  0.00000000E+00
  0.00000000E+00  0.00000000E+00  0.00000000E+00
  0.00000000E+00  0.00000000E+00  0.00000000E+00
  0.00000000E+00  0.00000000E+00  0.00000000E+00
  0.00000000E+00  0.00000000E+00  0.00000000E+00
  0.00000000E+00  0.00000000E+00  0.00000000E+00
  0.00000000E+00  0.00000000E+00  0.00000000E+00
  0.00000000E+00  0.00000000E+00  0.00000000E+00
  0.00000000E+00  0.00000000E+00  0.00000000E+00
  0.00000000E+00  0.00000000E+00  0.00000000E+00
  0.00000000E+00  0.00000000E+00  0.00000000E+00
  0.00000000E+00  0.00000000E+00  0.00000000E+00
  0.00000000E+00  0.00000000E+00  0.00000000E+00
  0.00000000E+00  0.00000000E+00  0.00000000E+00
  0.00000000E+00  0.00000000E+00  0.00000000E+00
  0.00000000E+00  0.00000000E+00  0.00000000E+00
  0.00000000E+00  0.00000000E+00  0.00000000E+00
  0.00000000E+00  0.00000000E+00  0.00000000E+00
  0.00000000E+00  0.00000000E+00  0.00000000E+00
  0.00000000E+00  0.00000000E+00  0.00000000E+00
  0.00000000E+00  0.00000000E+00  0.00000000E+00
  0.00000000E+00  0.00000000E+00  0.00000000E+00
  0.00000000E+00  0.00000000E+00  0.00000000E+00
  0.00000000E+00  0.00000000E+00  0.00000000E+00
  0.00000000E+00  0.00000000E+00  0.00000000E+00
  0.00000000E+00  0.00000000E+00  0.00000000E+00
  0.00000000E+00  0.00000000E+00  0.00000000E+00
  0.00000000E+00  0.00000000E+00  0.00000000E+00
  0.00000000E+00  0.00000000E+00  0.00000000E+00
  0.00000000E+00  0.00000000E+00  0.00000000E+00
  0.00000000E+00  0.00000000E+00  0.00000000E+00
  0.00000000E+00  0.00000000E+00  0.00000000E+00
  0.00000000E+00  0.00000000E+00  0.00000000E+00
  0.00000000E+00  0.00000000E+00  0.00000000E+00
  0.00000000E+00  0.00000000E+00  0.00000000E+00
  0.00000000E+00  0.00000000E+00  0.00000000E+00
  0.00000000E+00  0.00000000E+00  0.00000000E+00
  0.00000000E+00  0.00000000E+00  0.00000000E+00
  0.00000000E+00  0.00000000E+00  0.00000000E+00
  0.00000000E+00  0.00000000E+00  0.00000000E+00
  0.00000000E+00  0.00000000E+00  0.00000000E+00
  0.00000000E+00  0.00000000E+00  0.00000000E+00
  0.00000000E+00  0.00000000E+00  0.00000000E+00
  0.00000000E+00  0.00000000E+00  0.00000000E+00
  0.00000000E+00  0.00000000E+00  0.00000000E+00
  0.00000000E+00  0.00000000E+00  0.00000000E+00
  0.00000000E+00  0.00000000E+00  0.00000000E+00
  0.00000000E+00  0.00000000E+00  0.00000000E+00
  0.00000000E+00  0.00000000E+00  0.00000000E+00
  0.00000000E+00  0.00000000E+00  0.00000000E+00
  0.00000000E+00  0.00000000E+00  0.00000000E+00
  0.00000000E+00  0.00000000E+00  0.00000000E+00
  0.00000000E+00  0.00000000E+00  0.00000000E+00
  0.00000000E+00  0.00000000E+00  0.00000000E+00
  0.00000000E+00  0.00000000E+00  0.00000000E+00
  0.00000000E+00  0.00000000E+00  0.00000000E+00
  0.00000000E+00  0.00000000E+00  0.00000000E+00
  0.00000000E+00  0.00000000E+00  0.00000000E+00
  0.00000000E+00  0.00000000E+00  0.00000000E+00
  0.00000000E+00  0.00000000E+00  0.00000000E+00
  0.00000000E+00  0.00000000E+00  0.00000000E+00
  0.00000000E+00  0.00000000E+00  0.00000000E+00
  0.00000000E+00  0.00000000E+00  0.00000000E+00
  0.00000000E+00  0.00000000E+00  0.00000000E+00
  0.00000000E+00  0.00000000E+00  0.00000000E+00
  0.00000000E+00  0.00000000E+00  0.00000000E+00
  0.00000000E+00  0.00000000E+00  0.00000000E+00
  0.00000000E+00  0.00000000E+00  0.00000000E+00
  0.00000000E+00  0.00000000E+00  0.00000000E+00
  0.00000000E+00  0.00000000E+00  0.00000000E+00
  0.00000000E+00  0.00000000E+00  0.00000000E+00
  0.00000000E+00  0.00000000E+00  0.00000000E+00
  0.00000000E+00  0.00000000E+00  0.00000000E+00
  0.00000000E+00  0.00000000E+00  0.00000000E+00
  0.00000000E+00  0.00000000E+00  0.00000000E+00
  0.00000000E+00  0.00000000E+00  0.00000000E+00
  0.00000000E+00  0.00000000E+00  0.00000000E+00
  0.00000000E+00  0.00000000E+00  0.00000000E+00
  0.00000000E+00  0.00000000E+00  0.00000000E+00
