a-TiO2                                    
   1.00000000000000     
    13.1704154551119998    0.0000000000000000    0.0000000000000000
     0.0000000000000000   13.1704154551119998    0.0000000000000000
     0.0000000000000000    0.0000000000000000   13.1704154551119998
   Ti   O 
    72   144
Direct
  0.4393584741810541  0.9106001738866921  0.5249732068292173
  0.5843633585723284  0.4010037538771361  0.1241090829663704
  0.4786944796882842  0.1183365396013947  0.9216782215307365
  0.9850718267872177  0.8442179305804890  0.6955203345628683
  0.8189132774307728  0.3915034489708630  0.7668707289786362
  0.4704804346905799  0.1694773471292442  0.5839987900883729
  0.6745007306506307  0.6595246291729501  0.0418106645995390
  0.1048146465212103  0.4519531862981958  0.3214329806395388
  0.8924934988510451  0.3621483846955370  0.4298232357886854
  0.9116379902000048  0.0230021148342988  0.8523500177755212
  0.5517774879721959  0.9425932070266323  0.7284567797301859
  0.3546726551935764  0.8691848661164447  0.9007053514579503
  0.7996044480029282  0.2070254567507427  0.9403879492285343
  0.9311677302525790  0.9907474083377428  0.2585322261186894
  0.1222041414824976  0.2018400794688135  0.7897183382551545
  0.0536827430717631  0.9787016390335752  0.4922199878438515
  0.2301262657544381  0.8163771392239856  0.6588604703580990
  0.9352861610297289  0.1717057809840242  0.6381969016226237
  0.2097152077701977  0.2142117597707434  0.5620388409219234
  0.4410756535944457  0.6565960510622310  0.9298337869450565
  0.0447026919845113  0.4881905479301533  0.8522666673679873
  0.2450219542336723  0.2286847754830435  0.0436328246360942
  0.3238883335949010  0.4923999019718410  0.0453420687775253
  0.7678319442210074  0.8192226626128635  0.8191180773518900
  0.1819193737401752  0.6278172980942992  0.1780117337328454
  0.4215764706908444  0.7545734885302618  0.1503500579362652
  0.8373270524229309  0.1174390580892889  0.4198310584657254
  0.3156223782721591  0.0269471387638054  0.7130135293328871
  0.4655148245102090  0.9797558867247722  0.2996135092546641
  0.0220885776992360  0.2171899498689326  0.2807262542509871
  0.5890773263686830  0.3455326016369787  0.8663309655594993
  0.6195731977414050  0.5772451990507338  0.7954412546034764
  0.8007657592546196  0.4720383616797358  0.9857235495474150
  0.5777758061164265  0.8735655471137228  0.9764333685035129
  0.4060855094415373  0.6723258466398746  0.4116578839385680
  0.3027483596006645  0.9939572814887401  0.0970986623796689
  0.2412093470878074  0.0659372216076694  0.3818417750724329
  0.9038632896604250  0.5359176752622602  0.2318602203405041
  0.1624469037087239  0.6815469412105633  0.9354214899853825
  0.0406381363806353  0.3813880674171496  0.6448579641707499
  0.5910660128471122  0.2208369808100980  0.3310269867488227
  0.2399961577224427  0.8561110782706034  0.2765007964840069
  0.4683685462585351  0.6939231972922912  0.6366582971258664
  0.1046095374427204  0.6278618776152517  0.6505519774486411
  0.7988263329565248  0.8683997030749300  0.0471521395862995
  0.3154707797044368  0.5653961985778426  0.7626461606247258
  0.6961738363629684  0.9122964402861946  0.3734042614046376
  0.2660811303742626  0.2869295469954860  0.3029477550484607
  0.6886630845657300  0.4683726883533144  0.3145191558979431
  0.7129026650556542  0.0471859284118796  0.1655595757607111
  0.3432559944516356  0.2725002807878350  0.7992435521948317
  0.4255174580062934  0.5063176969221472  0.2499933712412480
  0.6707960085507374  0.6902391973860664  0.4705506588992542
  0.9399943279854881  0.6033564969861631  0.4813414556559745
  0.6977513458292278  0.4888828674989553  0.5795568078019039
  0.1452958767920121  0.9717239548090804  0.8728528796904583
  0.8233704235992549  0.6640807485687664  0.6850854576044829
  0.7219204671937550  0.2580104035721624  0.5639773277297482
  0.0467810952577243  0.1103686608081331  0.0435578870020027
  0.9719118831943820  0.7818956980272567  0.3221542246480099
  0.0692096304411549  0.8510164275486951  0.0736307625985076
  0.0690336949442718  0.3800156719041720  0.1011418035344614
  0.7716052562836592  0.7181793822376348  0.2655539909871815
  0.2420802975175455  0.4757202060109033  0.5205899750112892
  0.4717554452076171  0.3874593793365749  0.4377401816994218
  0.4593558470378417  0.1675418901784638  0.1439590178636812
  0.9443489727306618  0.6537997831802639  0.0414165566813263
  0.4527756804999579  0.4199449453388949  0.6581883752276114
  0.6822217110564641  0.1201963196214971  0.7442921075171091
  0.8058865521255845  0.2672598127100476  0.1737276895977533
  0.1695092111344768  0.6842872946307955  0.4211065938349696
  0.7856332012327204  0.9119301016143609  0.5970052935232359
  0.0391710445723104  0.9712822592981779  0.0007835599721339
  0.5571165323481647  0.1468786948370315  0.0376864540041927
  0.8560159355418726  0.9368930619754197  0.7308872351514378
  0.1798317916230209  0.0653181935978683  0.7470581961625918
  0.3765072998966348  0.0009006239071407  0.4254254343455930
  0.1495205779041117  0.0922957431174962  0.5025912332204449
  0.7454642056324547  0.7578663334818031  0.1322842375300349
  0.8656313795208237  0.2858689215971175  0.8495611081618039
  0.7740266247329568  0.1573862458531440  0.0821693890671424
  0.5574526426622440  0.7628295074642112  0.0843768126605403
  0.0968659078342628  0.9059817498768150  0.6060172174746836
  0.8197235039688101  0.8521106873351429  0.2982704612731182
  0.7080181493946526  0.4516277092972859  0.8634011354530597
  0.1786425772981143  0.7256825420632402  0.5618554818747290
  0.0271456262292888  0.3291600828532980  0.3815306303593339
  0.8743059629052597  0.2347879555621825  0.5052234681407435
  0.6512729456862697  0.7466847346383961  0.3356918522152207
  0.7109239450159200  0.3690461868400948  0.1988393321817115
  0.3675248805174346  0.8560844017669512  0.0579494440751550
  0.0683374193059750  0.5063859783134086  0.1837306421816501
  0.7904030842835240  0.6230827565357266  0.5433199311769776
  0.7323727720541325  0.6668608976925123  0.8058297307725611
  0.1600788204031098  0.1633047311731421  0.3007174161527794
  0.9790314520548835  0.0956262696363687  0.3660630475915596
  0.4364449722151152  0.6565771682169355  0.2692576420856997
  0.6195539190773026  0.9683649858743316  0.2559786994762182
  0.3399784691535782  0.4178187293077027  0.7572629339970784
  0.3047842010636350  0.7248212898507299  0.9034638983032293
  0.1426538610034900  0.3357374326287929  0.2298105243454515
  0.7584163358249016  0.5768740224374912  0.2321863129182494
  0.0213870474531328  0.6251723253187901  0.9218391375732059
  0.9384407602453900  0.0560849939174089  0.5516113486444313
  0.9255062892080530  0.6781169039755803  0.2030086105345279
  0.1578250894550154  0.3596375193895654  0.5577131562325492
  0.8344107738404435  0.4350420011454684  0.3198319743443866
  0.6058997814406850  0.3431845994218516  0.0012561043975914
  0.7542890018659332  0.3835729986868848  0.4896449333244144
  0.2747604747527654  0.7327826800463746  0.1827718894257674
  0.0771854635835427  0.3495794892449973  0.7864421607446204
  0.1061351544260437  0.5594931682542493  0.5056991855625084
  0.4630398275669023  0.2742255027805942  0.8858342233174226
  0.3058150929388270  0.9263551915803313  0.6020000789291823
  0.1086265852525253  0.1118365514516487  0.9056813755297112
  0.6099294516042095  0.1876309301829245  0.6267095375094534
  0.1891350708960490  0.9009672639475131  0.1400878034547446
  0.0256328575685822  0.7188857296628027  0.4405020000650232
  0.7964832438926411  0.0388156595047817  0.2998921413530095
  0.9277709009366676  0.7948148718330705  0.0343418583858006
  0.7787978249436244  0.0861399410994871  0.8486472159439130
  0.2924568521350118  0.0026862930270442  0.2578818339616564
  0.1056616969027448  0.7499976015891187  0.7323041887255632
  0.0862432650588051  0.7030748252046971  0.0868775810994232
  0.6195992164820027  0.6014007331560955  0.6464351009244943
  0.6754395050419872  0.2378161583556370  0.8438189032597699
  0.7059308484128398  0.3623965878285378  0.6718422843012680
  0.8987848966960875  0.4754475249966887  0.8669115189641414
  0.2422064643315198  0.3759084842890486  0.0548779458534993
  0.0687730619330166  0.4319262995279317  0.9751885653148334
  0.3233369352024141  0.2315570826288593  0.1799266127341521
  0.9003821774068976  0.7507420292401272  0.7785456248824250
  0.9108812935991493  0.8500982859381283  0.5721919258634408
  0.2409834130849649  0.8940577783322162  0.7874367663555979
  0.5464310034952867  0.9197485540224201  0.4214022887148934
  0.9087986713509544  0.5062983138333621  0.0893035850515408
  0.0948394544531200  0.2469193886187122  0.0485543694024864
  0.8105964016800887  0.6267493894549850  0.9868344542805522
  0.4787641773759993  0.9762378350859919  0.9549796108628517
  0.6822095936945783  0.5138847173966081  0.0633262947015913
  0.5595479342071387  0.0786892154393368  0.8029213518453191
  0.9112998817599203  0.3261231823630578  0.6688066253947182
  0.1189141055484782  0.7631120519057889  0.2905660713890204
  0.2703666597035717  0.9797471327661315  0.9524792776762594
  0.4870281642071465  0.1275988638671015  0.2940057821049478
  0.9984878528780499  0.8786663540767387  0.2018160170656781
  0.5344296431706699  0.2821937545588268  0.1952677775549508
  0.8008015813083269  0.5185643940130006  0.6904692914469891
  0.2953312497238990  0.5974421584060492  0.4627053514958329
  0.2110921974851378  0.5856958462037021  0.0338830849227606
  0.9758407282284300  0.1301722156520651  0.7668554264308793
  0.8399522993797808  0.9739345618602753  0.1345893072408175
  0.1709890073131718  0.5840828025485260  0.3170971524040121
  0.5413490647580886  0.4492120192063216  0.7729780400891486
  0.6775831773811859  0.9943590553994048  0.6678569456099178
  0.2207262357999213  0.5348882522547945  0.6531060438163060
  0.3697783719950787  0.1247431252713865  0.8073502331835123
  0.4452110636075067  0.2738316974472398  0.6803080396983170
  0.6001642045867790  0.3617215508438978  0.3666466797091747
  0.1349247656447710  0.8230071372535528  0.9423824790319711
  0.9212901307368159  0.1237487658272456  0.9642325891250104
  0.5726090556692156  0.5069617817431935  0.2311127628958284
  0.8641560751408224  0.2341908330252244  0.3132260174879132
  0.5325797664530022  0.6791202949505484  0.4947743760528985
  0.1914711478580398  0.0962341659050308  0.0915794144559074
  0.3663230296124835  0.1436594724011002  0.0212397783300463
  0.7613311496093932  0.0001648757617136  0.4756556088204318
  0.7393831132476294  0.7908387225643104  0.6743092605758646
  0.6713661335574490  0.9562187015998157  0.0542663175702272
  0.4863863111453522  0.6445047907948084  0.7810374149570978
  0.9854909793203791  0.5322296006308382  0.3529525027673568
  0.5265771003964437  0.8305912260893864  0.6407110741578735
  0.4110616215496034  0.8516458041149074  0.2612096074928795
  0.5828934947535521  0.6122237267163603  0.9363461627795624
  0.3270824263619695  0.1293977793816462  0.5982218806615098
  0.8570140335206767  0.6811668955985161  0.3812462783484432
  0.8385271735929041  0.9118198569586549  0.9162006144681398
  0.8129129672336475  0.3336244458103861  0.0313677968758120
  0.7053211955077427  0.7836043207751138  0.9569516656441591
  0.3952432925482254  0.3668636407127513  0.3117828389783386
  0.0708645140293998  0.2215132836027127  0.6301011788903226
  0.9427521687586533  0.4556163640278466  0.5257806546064637
  0.4931401263066127  0.2341789371412818  0.4611064597695302
  0.4444578470626310  0.4388284258032079  0.1066657880561564
  0.0264739564871169  0.5116406872950779  0.7060198310992322
  0.4148145187917104  0.9336637288190150  0.7788425507557643
  0.2350224344154029  0.2500292683548933  0.7042772099992646
  0.2928663343572283  0.5222326174329219  0.1907682282315919
  0.3893408370775059  0.7716495240113098  0.5268320371747104
  0.5590428618154519  0.4219596361970996  0.5569984776519866
  0.4106712756853591  0.6311293708184013  0.0668493864007107
  0.7132704928601958  0.8264053101733356  0.4950550896138853
  0.4398820487944226  0.0204891638258536  0.1519244484749365
  0.3611061269599610  0.3900473312645776  0.5364166153179095
  0.9715201911709250  0.9116711641910388  0.3878363087084463
  0.4832155150859561  0.0230587588064714  0.6135338676929174
  0.6972831818035369  0.1854571729281963  0.4355719689956692
  0.3667353744861673  0.5310178792827860  0.9051770725463457
  0.1665859007250980  0.9408883697053042  0.3890569947040697
  0.1776177026393565  0.5782012570897929  0.8262819777570396
  0.6692790535354364  0.5475645601222646  0.4315055010715820
  0.0236804558246984  0.9343325232868068  0.8050612054989993
  0.2358155551320624  0.2545382899955574  0.8942084037438883
  0.9620886174683723  0.6613098902124035  0.6162145928065236
  0.7909054880246289  0.1683393172938515  0.6581391235698523
  0.9555226451361799  0.3130565120495965  0.1732414689815838
  0.2238805708264819  0.4088610507254380  0.3859288442563916
  0.2864491289368269  0.7644450703706451  0.3792490308868889
  0.6871293147750520  0.1744090439171487  0.2360513207306286
  0.2849777304552223  0.2131440564602075  0.4280915892053951
  0.4808346762658326  0.7932418396037916  0.9010457712067497
  0.3268914963742685  0.7147083363094392  0.7040876315333245
  0.6366915083441697  0.8932555345274673  0.8345757391927766
  0.4548923405005840  0.5244470262021226  0.3957054539303737
  0.9887337045893207  0.1049335042832085  0.1784486314932523
  0.4099500440115598  0.5561995835559091  0.6349095656033062
 
  0.00000000E+00  0.00000000E+00  0.00000000E+00
  0.00000000E+00  0.00000000E+00  0.00000000E+00
  0.00000000E+00  0.00000000E+00  0.00000000E+00
  0.00000000E+00  0.00000000E+00  0.00000000E+00
  0.00000000E+00  0.00000000E+00  0.00000000E+00
  0.00000000E+00  0.00000000E+00  0.00000000E+00
  0.00000000E+00  0.00000000E+00  0.00000000E+00
  0.00000000E+00  0.00000000E+00  0.00000000E+00
  0.00000000E+00  0.00000000E+00  0.00000000E+00
  0.00000000E+00  0.00000000E+00  0.00000000E+00
  0.00000000E+00  0.00000000E+00  0.00000000E+00
  0.00000000E+00  0.00000000E+00  0.00000000E+00
  0.00000000E+00  0.00000000E+00  0.00000000E+00
  0.00000000E+00  0.00000000E+00  0.00000000E+00
  0.00000000E+00  0.00000000E+00  0.00000000E+00
  0.00000000E+00  0.00000000E+00  0.00000000E+00
  0.00000000E+00  0.00000000E+00  0.00000000E+00
  0.00000000E+00  0.00000000E+00  0.00000000E+00
  0.00000000E+00  0.00000000E+00  0.00000000E+00
  0.00000000E+00  0.00000000E+00  0.00000000E+00
  0.00000000E+00  0.00000000E+00  0.00000000E+00
  0.00000000E+00  0.00000000E+00  0.00000000E+00
  0.00000000E+00  0.00000000E+00  0.00000000E+00
  0.00000000E+00  0.00000000E+00  0.00000000E+00
  0.00000000E+00  0.00000000E+00  0.00000000E+00
  0.00000000E+00  0.00000000E+00  0.00000000E+00
  0.00000000E+00  0.00000000E+00  0.00000000E+00
  0.00000000E+00  0.00000000E+00  0.00000000E+00
  0.00000000E+00  0.00000000E+00  0.00000000E+00
  0.00000000E+00  0.00000000E+00  0.00000000E+00
  0.00000000E+00  0.00000000E+00  0.00000000E+00
  0.00000000E+00  0.00000000E+00  0.00000000E+00
  0.00000000E+00  0.00000000E+00  0.00000000E+00
  0.00000000E+00  0.00000000E+00  0.00000000E+00
  0.00000000E+00  0.00000000E+00  0.00000000E+00
  0.00000000E+00  0.00000000E+00  0.00000000E+00
  0.00000000E+00  0.00000000E+00  0.00000000E+00
  0.00000000E+00  0.00000000E+00  0.00000000E+00
  0.00000000E+00  0.00000000E+00  0.00000000E+00
  0.00000000E+00  0.00000000E+00  0.00000000E+00
  0.00000000E+00  0.00000000E+00  0.00000000E+00
  0.00000000E+00  0.00000000E+00  0.00000000E+00
  0.00000000E+00  0.00000000E+00  0.00000000E+00
  0.00000000E+00  0.00000000E+00  0.00000000E+00
  0.00000000E+00  0.00000000E+00  0.00000000E+00
  0.00000000E+00  0.00000000E+00  0.00000000E+00
  0.00000000E+00  0.00000000E+00  0.00000000E+00
  0.00000000E+00  0.00000000E+00  0.00000000E+00
  0.00000000E+00  0.00000000E+00  0.00000000E+00
  0.00000000E+00  0.00000000E+00  0.00000000E+00
  0.00000000E+00  0.00000000E+00  0.00000000E+00
  0.00000000E+00  0.00000000E+00  0.00000000E+00
  0.00000000E+00  0.00000000E+00  0.00000000E+00
  0.00000000E+00  0.00000000E+00  0.00000000E+00
  0.00000000E+00  0.00000000E+00  0.00000000E+00
  0.00000000E+00  0.00000000E+00  0.00000000E+00
  0.00000000E+00  0.00000000E+00  0.00000000E+00
  0.00000000E+00  0.00000000E+00  0.00000000E+00
  0.00000000E+00  0.00000000E+00  0.00000000E+00
  0.00000000E+00  0.00000000E+00  0.00000000E+00
  0.00000000E+00  0.00000000E+00  0.00000000E+00
  0.00000000E+00  0.00000000E+00  0.00000000E+00
  0.00000000E+00  0.00000000E+00  0.00000000E+00
  0.00000000E+00  0.00000000E+00  0.00000000E+00
  0.00000000E+00  0.00000000E+00  0.00000000E+00
  0.00000000E+00  0.00000000E+00  0.00000000E+00
  0.00000000E+00  0.00000000E+00  0.00000000E+00
  0.00000000E+00  0.00000000E+00  0.00000000E+00
  0.00000000E+00  0.00000000E+00  0.00000000E+00
  0.00000000E+00  0.00000000E+00  0.00000000E+00
  0.00000000E+00  0.00000000E+00  0.00000000E+00
  0.00000000E+00  0.00000000E+00  0.00000000E+00
  0.00000000E+00  0.00000000E+00  0.00000000E+00
  0.00000000E+00  0.00000000E+00  0.00000000E+00
  0.00000000E+00  0.00000000E+00  0.00000000E+00
  0.00000000E+00  0.00000000E+00  0.00000000E+00
  0.00000000E+00  0.00000000E+00  0.00000000E+00
  0.00000000E+00  0.00000000E+00  0.00000000E+00
  0.00000000E+00  0.00000000E+00  0.00000000E+00
  0.00000000E+00  0.00000000E+00  0.00000000E+00
  0.00000000E+00  0.00000000E+00  0.00000000E+00
  0.00000000E+00  0.00000000E+00  0.00000000E+00
  0.00000000E+00  0.00000000E+00  0.00000000E+00
  0.00000000E+00  0.00000000E+00  0.00000000E+00
  0.00000000E+00  0.00000000E+00  0.00000000E+00
  0.00000000E+00  0.00000000E+00  0.00000000E+00
  0.00000000E+00  0.00000000E+00  0.00000000E+00
  0.00000000E+00  0.00000000E+00  0.00000000E+00
  0.00000000E+00  0.00000000E+00  0.00000000E+00
  0.00000000E+00  0.00000000E+00  0.00000000E+00
  0.00000000E+00  0.00000000E+00  0.00000000E+00
  0.00000000E+00  0.00000000E+00  0.00000000E+00
  0.00000000E+00  0.00000000E+00  0.00000000E+00
  0.00000000E+00  0.00000000E+00  0.00000000E+00
  0.00000000E+00  0.00000000E+00  0.00000000E+00
  0.00000000E+00  0.00000000E+00  0.00000000E+00
  0.00000000E+00  0.00000000E+00  0.00000000E+00
  0.00000000E+00  0.00000000E+00  0.00000000E+00
  0.00000000E+00  0.00000000E+00  0.00000000E+00
  0.00000000E+00  0.00000000E+00  0.00000000E+00
  0.00000000E+00  0.00000000E+00  0.00000000E+00
  0.00000000E+00  0.00000000E+00  0.00000000E+00
  0.00000000E+00  0.00000000E+00  0.00000000E+00
  0.00000000E+00  0.00000000E+00  0.00000000E+00
  0.00000000E+00  0.00000000E+00  0.00000000E+00
  0.00000000E+00  0.00000000E+00  0.00000000E+00
  0.00000000E+00  0.00000000E+00  0.00000000E+00
  0.00000000E+00  0.00000000E+00  0.00000000E+00
  0.00000000E+00  0.00000000E+00  0.00000000E+00
  0.00000000E+00  0.00000000E+00  0.00000000E+00
  0.00000000E+00  0.00000000E+00  0.00000000E+00
  0.00000000E+00  0.00000000E+00  0.00000000E+00
  0.00000000E+00  0.00000000E+00  0.00000000E+00
  0.00000000E+00  0.00000000E+00  0.00000000E+00
  0.00000000E+00  0.00000000E+00  0.00000000E+00
  0.00000000E+00  0.00000000E+00  0.00000000E+00
  0.00000000E+00  0.00000000E+00  0.00000000E+00
  0.00000000E+00  0.00000000E+00  0.00000000E+00
  0.00000000E+00  0.00000000E+00  0.00000000E+00
  0.00000000E+00  0.00000000E+00  0.00000000E+00
  0.00000000E+00  0.00000000E+00  0.00000000E+00
  0.00000000E+00  0.00000000E+00  0.00000000E+00
  0.00000000E+00  0.00000000E+00  0.00000000E+00
  0.00000000E+00  0.00000000E+00  0.00000000E+00
  0.00000000E+00  0.00000000E+00  0.00000000E+00
  0.00000000E+00  0.00000000E+00  0.00000000E+00
  0.00000000E+00  0.00000000E+00  0.00000000E+00
  0.00000000E+00  0.00000000E+00  0.00000000E+00
  0.00000000E+00  0.00000000E+00  0.00000000E+00
  0.00000000E+00  0.00000000E+00  0.00000000E+00
  0.00000000E+00  0.00000000E+00  0.00000000E+00
  0.00000000E+00  0.00000000E+00  0.00000000E+00
  0.00000000E+00  0.00000000E+00  0.00000000E+00
  0.00000000E+00  0.00000000E+00  0.00000000E+00
  0.00000000E+00  0.00000000E+00  0.00000000E+00
  0.00000000E+00  0.00000000E+00  0.00000000E+00
  0.00000000E+00  0.00000000E+00  0.00000000E+00
  0.00000000E+00  0.00000000E+00  0.00000000E+00
  0.00000000E+00  0.00000000E+00  0.00000000E+00
  0.00000000E+00  0.00000000E+00  0.00000000E+00
  0.00000000E+00  0.00000000E+00  0.00000000E+00
  0.00000000E+00  0.00000000E+00  0.00000000E+00
  0.00000000E+00  0.00000000E+00  0.00000000E+00
  0.00000000E+00  0.00000000E+00  0.00000000E+00
  0.00000000E+00  0.00000000E+00  0.00000000E+00
  0.00000000E+00  0.00000000E+00  0.00000000E+00
  0.00000000E+00  0.00000000E+00  0.00000000E+00
  0.00000000E+00  0.00000000E+00  0.00000000E+00
  0.00000000E+00  0.00000000E+00  0.00000000E+00
  0.00000000E+00  0.00000000E+00  0.00000000E+00
  0.00000000E+00  0.00000000E+00  0.00000000E+00
  0.00000000E+00  0.00000000E+00  0.00000000E+00
  0.00000000E+00  0.00000000E+00  0.00000000E+00
  0.00000000E+00  0.00000000E+00  0.00000000E+00
  0.00000000E+00  0.00000000E+00  0.00000000E+00
  0.00000000E+00  0.00000000E+00  0.00000000E+00
  0.00000000E+00  0.00000000E+00  0.00000000E+00
  0.00000000E+00  0.00000000E+00  0.00000000E+00
  0.00000000E+00  0.00000000E+00  0.00000000E+00
  0.00000000E+00  0.00000000E+00  0.00000000E+00
  0.00000000E+00  0.00000000E+00  0.00000000E+00
  0.00000000E+00  0.00000000E+00  0.00000000E+00
  0.00000000E+00  0.00000000E+00  0.00000000E+00
  0.00000000E+00  0.00000000E+00  0.00000000E+00
  0.00000000E+00  0.00000000E+00  0.00000000E+00
  0.00000000E+00  0.00000000E+00  0.00000000E+00
  0.00000000E+00  0.00000000E+00  0.00000000E+00
  0.00000000E+00  0.00000000E+00  0.00000000E+00
  0.00000000E+00  0.00000000E+00  0.00000000E+00
  0.00000000E+00  0.00000000E+00  0.00000000E+00
  0.00000000E+00  0.00000000E+00  0.00000000E+00
  0.00000000E+00  0.00000000E+00  0.00000000E+00
  0.00000000E+00  0.00000000E+00  0.00000000E+00
  0.00000000E+00  0.00000000E+00  0.00000000E+00
  0.00000000E+00  0.00000000E+00  0.00000000E+00
  0.00000000E+00  0.00000000E+00  0.00000000E+00
  0.00000000E+00  0.00000000E+00  0.00000000E+00
  0.00000000E+00  0.00000000E+00  0.00000000E+00
  0.00000000E+00  0.00000000E+00  0.00000000E+00
  0.00000000E+00  0.00000000E+00  0.00000000E+00
  0.00000000E+00  0.00000000E+00  0.00000000E+00
  0.00000000E+00  0.00000000E+00  0.00000000E+00
  0.00000000E+00  0.00000000E+00  0.00000000E+00
  0.00000000E+00  0.00000000E+00  0.00000000E+00
  0.00000000E+00  0.00000000E+00  0.00000000E+00
  0.00000000E+00  0.00000000E+00  0.00000000E+00
  0.00000000E+00  0.00000000E+00  0.00000000E+00
  0.00000000E+00  0.00000000E+00  0.00000000E+00
  0.00000000E+00  0.00000000E+00  0.00000000E+00
  0.00000000E+00  0.00000000E+00  0.00000000E+00
  0.00000000E+00  0.00000000E+00  0.00000000E+00
  0.00000000E+00  0.00000000E+00  0.00000000E+00
  0.00000000E+00  0.00000000E+00  0.00000000E+00
  0.00000000E+00  0.00000000E+00  0.00000000E+00
  0.00000000E+00  0.00000000E+00  0.00000000E+00
  0.00000000E+00  0.00000000E+00  0.00000000E+00
  0.00000000E+00  0.00000000E+00  0.00000000E+00
  0.00000000E+00  0.00000000E+00  0.00000000E+00
  0.00000000E+00  0.00000000E+00  0.00000000E+00
  0.00000000E+00  0.00000000E+00  0.00000000E+00
  0.00000000E+00  0.00000000E+00  0.00000000E+00
  0.00000000E+00  0.00000000E+00  0.00000000E+00
  0.00000000E+00  0.00000000E+00  0.00000000E+00
  0.00000000E+00  0.00000000E+00  0.00000000E+00
  0.00000000E+00  0.00000000E+00  0.00000000E+00
  0.00000000E+00  0.00000000E+00  0.00000000E+00
  0.00000000E+00  0.00000000E+00  0.00000000E+00
  0.00000000E+00  0.00000000E+00  0.00000000E+00
  0.00000000E+00  0.00000000E+00  0.00000000E+00
  0.00000000E+00  0.00000000E+00  0.00000000E+00
  0.00000000E+00  0.00000000E+00  0.00000000E+00
  0.00000000E+00  0.00000000E+00  0.00000000E+00
  0.00000000E+00  0.00000000E+00  0.00000000E+00
  0.00000000E+00  0.00000000E+00  0.00000000E+00
  0.00000000E+00  0.00000000E+00  0.00000000E+00
  0.00000000E+00  0.00000000E+00  0.00000000E+00
