fcc:                                    
   1.00000000000000     
    12.9103563673689994    0.0000000000000000    0.0000000000000000
     0.0000000000000000   12.9103563673689994    0.0000000000000000
     0.0000000000000000    0.0000000000000000   12.9103563673689994
   Ti   O 
    72   130
Direct
  0.4232321470371901  0.0179625478278538  0.1600623481136250
  0.4500922384557346  0.2950385551888453  0.6784652003956930
  0.0543760554428162  0.5369749939563933  0.3223643295009080
  0.2411443366328144  0.1664534432787735  0.0216103320737987
  0.2046167623299257  0.6119198204538329  0.9851570794213337
  0.0575566272528864  0.9617875856693150  0.6324643252501897
  0.0660237474002389  0.5504436051535561  0.8031871736723242
  0.3589270598903521  0.7585819235448583  0.1836553728459168
  0.5508708755668839  0.0812929969994005  0.6875767193714991
  0.4221817448496657  0.8513148908696436  0.3874402732576028
  0.6766431742300859  0.9037160098777041  0.1394074789057417
  0.3688252336561356  0.3712419714817077  0.4009125365923257
  0.5935946300875825  0.6863938062871380  0.2083884955669872
  0.7925361698887800  0.1123819243720769  0.3059415879268896
  0.2023299486095815  0.3999089733588165  0.1600600652930337
  0.2138693675148883  0.7822974132342009  0.7784065318961728
  0.1706351371793173  0.9168111806480538  0.3802953098677360
  0.3461212648081727  0.5304308144563771  0.7719143155254599
  0.8428675979408352  0.7841246029132588  0.5787055779040816
  0.0893134697798323  0.7107030436186142  0.5586289155437171
  0.6477893125587938  0.2529194185741780  0.8478906193980571
  0.0094628540387355  0.4883999715812269  0.0535740797511694
  0.9461973251718225  0.7203030651530687  0.9946191222141766
  0.8143842775245684  0.3254462486567787  0.0581078830044547
  0.7489288687896751  0.8506907899479779  0.3688196812805589
  0.2714369609761538  0.8800744909082643  0.9840785136360323
  0.8579833909005200  0.3804658841541766  0.8239681921019658
  0.8887867937413312  0.8877674818097073  0.7900439066558976
  0.3475358345827114  0.0898126031880992  0.4126779912563940
  0.4402362805005505  0.8663761347705293  0.8135612568248702
  0.5974251151929265  0.1656995655328305  0.0998471139206463
  0.5914278774299238  0.6778330108723070  0.7075932411682352
  0.3393861315760305  0.9908645340092725  0.6262506607094326
  0.2030592776002677  0.1783610586004312  0.6257226169003546
  0.7458741515907225  0.5940476705342368  0.9983049673762323
  0.9516121060980047  0.9186570216739692  0.1939400558987377
  0.5773441507493758  0.2410076080349793  0.4552884175645890
  0.8094223926344422  0.5196792958127751  0.2060469055613650
  0.0706985444852900  0.9682486783822181  0.9450463168488435
  0.7083054694628088  0.0232317268254522  0.8660736477337898
  0.5862587621832378  0.4789945319829182  0.3416635826486116
  0.3938332189028984  0.5290045758885286  0.1659362910173394
  0.9966308346301855  0.1298333951652863  0.4666651099246356
  0.9417868133311152  0.5209245627580088  0.5636699670137409
  0.8206237921583958  0.6230613784631251  0.7617613753154270
  0.9427239376434730  0.7199250708377433  0.3648112300838304
  0.3795663253791134  0.7050968181165408  0.6082861066751443
  0.9396090357645036  0.1094631926298014  0.7944759124049801
  0.4665556357418001  0.6316037780430314  0.9506205245801110
  0.6652961438596746  0.7987371813951244  0.9346052721041329
  0.7002444075586101  0.6127509369268626  0.5090433621802760
  0.9855253403136154  0.2881482952369828  0.2287967686384482
  0.2119417764453974  0.3317184221057211  0.8029603735378589
  0.0311305265876961  0.2428398703760034  0.9937549618236734
  0.1996191924510160  0.4947291644812983  0.5795475422209353
  0.6077747978192527  0.8841743857175957  0.5744298596131753
  0.4023089220850965  0.2572183126631045  0.2074249335110986
  0.1192494251268523  0.3414530630418753  0.4250435634399449
  0.4828071294363086  0.4873043986265925  0.5522426955697796
  0.7158405912264593  0.4065573739428361  0.6072718209580331
  0.2436876124141032  0.6764759451657845  0.3818581042645884
  0.4621270104777939  0.0885590857935319  0.8907828939431232
  0.1783701286601507  0.1602993684586630  0.2491429739446784
  0.6208835903079220  0.4842146055712572  0.8158595336343836
  0.8538192230807560  0.0664829199634039  0.0773804505657967
  0.9810639908919083  0.3085518829717512  0.6474575597027471
  0.5899109629601643  0.4180257390330872  0.0677387085854547
  0.8137949823443542  0.0338220825955225  0.5883977537987582
  0.1134384720980321  0.7608038049037211  0.1576267611561739
  0.5695853229842801  0.0315226625444528  0.3345228998121118
  0.8297420959356347  0.3502461603790898  0.4089872165342048
  0.4106067744369700  0.3333025828554648  0.9617283486488659
  0.0356979682105522  0.1167325048090192  0.9114086154829213
  0.6862604507932384  0.6792986640462686  0.8230507068698527
  0.7930776688732335  0.7185376139940317  0.4350202820233995
  0.0781989603972626  0.3537737883767070  0.0890258720723222
  0.3314031574083559  0.7793353030779071  0.8864273083829008
  0.5673523787392508  0.3657292274406967  0.9132294270230447
  0.6779834221778385  0.1374939857756438  0.7629439033848173
  0.8193910335768895  0.9152492557694721  0.1201298473564865
  0.8914075062626945  0.5806846255976698  0.0600381368099222
  0.2605779799847051  0.5197213345102557  0.0933730612708966
  0.1589990433174046  0.7930560569272920  0.4540957833268729
  0.2934494456764621  0.3060687350292828  0.0867536268494903
  0.8339325927956104  0.0699978354193544  0.9270744882997661
  0.6825252630158698  0.2896422083087588  0.1115976125648222
  0.8005463382169881  0.7312540253173863  0.9780236667764159
  0.3233951650071290  0.1273501021913676  0.5518063946196162
  0.0613411142416387  0.4133622349148383  0.5640518158984800
  0.5461426091779256  0.2037891012802530  0.6057412417825602
  0.0721141124581209  0.9890284297696609  0.4815519734320252
  0.7184340039901861  0.0993233999352754  0.1540626128393396
  0.5232533222257949  0.7724378790905612  0.8892417630265678
  0.9091950196240381  0.2179712520085516  0.0959537284638677
  0.1787363926371652  0.8948715564826389  0.8588226741416132
  0.3123706874400977  0.1239002747118239  0.1585556344391384
  0.1810402380195247  0.5066738896362357  0.3827529236509755
  0.3965677421630556  0.0632950756662674  0.7406561436819307
  0.5532536962799391  0.9539748124051670  0.1962737552726627
  0.4885682407480521  0.1225487303274531  0.4334026736577762
  0.5422385282784071  0.5092216709688384  0.2016430556865538
  0.0192134975161069  0.9725230228270360  0.7840886539127784
  0.0389204658667583  0.1793686893898158  0.3355324884753903
  0.0031260477097043  0.4205181517555514  0.7796994333095274
  0.7186538921917207  0.9778542434579789  0.3051175639177048
  0.3232729216128794  0.2256322323539227  0.3474804326535725
  0.1524724738908619  0.3155219710357933  0.2712904080099829
  0.3657564408408857  0.3913992394556228  0.8219910104876919
  0.9883684908259756  0.4000844968762224  0.3560407088066425
  0.0963720220663844  0.6839167077014406  0.2915407007049988
  0.9336889542963274  0.3818214004662220  0.9624321070195337
  0.9132179548259947  0.9129530794903907  0.6299770699159537
  0.0885388850410063  0.8956552473566245  0.2614376042344354
  0.3251280255713330  0.8583244393094096  0.6952078510232956
  0.7091221565745357  0.3576880613319511  0.7571108649024418
  0.2178606490205722  0.0511530927286705  0.3438924881567991
  0.3011068996035515  0.2684939965623555  0.6906634812669459
  0.7791808246902554  0.5074001620888386  0.8692719829438593
  0.3214665261144138  0.6286897975011663  0.2539195365709468
  0.6202989387703417  0.6216386544146555  0.3511477372071834
  0.0874054616688740  0.5052314519137848  0.1842283156344315
  0.3819847759160204  0.7339551817805302  0.4571546454488736
  0.4495788810219116  0.3334435169324633  0.5234010038368913
  0.2235928677654232  0.6427705029753906  0.5415553422724552
  0.9625331717945217  0.8455959880732539  0.9161327063007481
  0.5368553722451352  0.4125362640058712  0.6865564887826046
  0.5036421177077752  0.2173697933029747  0.7924178964693090
  0.7158533071809662  0.6205816797029657  0.1510427467825254
  0.3427838121812619  0.4082613501958616  0.2455408004641895
  0.1714614044105624  0.2634911779384725  0.9263972290465688
  0.7638536426919572  0.8997097823633342  0.5100742314915573
  0.6031204062157595  0.5610197913011408  0.9680899511536680
  0.6866259953004112  0.7911697420152560  0.2531927561090654
  0.8659087637976292  0.4145940113903032  0.6616883420871318
  0.6639704305912797  0.9455069910427458  0.9940148731749179
  0.4810834514700069  0.9776862015285106  0.5942216882256399
  0.3162454069535864  0.9399405972364024  0.4764962584540725
  0.2116794581289313  0.0291538434256497  0.9882209479002425
  0.6641436194268975  0.1552780016262778  0.3698667205742543
  0.6238283986107851  0.1434798192717723  0.9477014401229522
  0.8833790368526486  0.7601867982206039  0.7258099249134908
  0.1172784781589662  0.4934376094131230  0.9405031426294875
  0.9072158881267025  0.0556941903064673  0.2323335257416878
  0.8867293417733535  0.8574222123759978  0.3196438973290299
  0.6860625301726485  0.5533948979423545  0.6784552087160809
  0.7763216866422404  0.2863795906072449  0.9209511561534145
  0.5206016937809815  0.3287586125613088  0.3405178657746411
  0.1457030237767039  0.6753775294518820  0.8569255630381410
  0.9273108749930966  0.2636465925330405  0.5163934478877080
  0.5268470086406397  0.6338626095699956  0.5756416753731414
  0.2550522247686491  0.3707122805648251  0.4978751093876252
  0.8214413650428120  0.0244503335386331  0.7461023767995696
  0.3554818675312238  0.5213690989806895  0.6211310233534718
  0.5105375414057349  0.1439208981452912  0.2235300827266213
  0.9942065317017303  0.9943742888719078  0.0676470845422662
  0.4973301874634751  0.2847521218896713  0.0866832441393943
  0.0541546738928498  0.6020132850887066  0.6596750594367736
  0.4788315415128056  0.7742085796555791  0.2692899328600559
  0.3838902039457857  0.9571226945820223  0.9119732991076457
  0.3575357835223875  0.8947927753394667  0.1118873053342010
  0.9027492916680915  0.4089014473762908  0.1612074913476240
  0.8606587388489311  0.0796628319931342  0.4396959505331051
  0.4914587932919404  0.5865967628803495  0.7917032852407855
  0.9617055889424483  0.7801349469782908  0.1307815500792173
  0.9745538509897790  0.0976220923509630  0.6239096672908636
  0.5046450980737949  0.7959519774023956  0.6819172746489962
  0.8963868135864241  0.2507334516425557  0.7600382446468589
  0.2973874174518854  0.6675948005598267  0.7279307043057817
  0.1038514293710134  0.2496055883992351  0.7135903946544114
  0.7082212344364914  0.2923778168182917  0.5022532123989778
  0.7469991677171609  0.8788174572707486  0.8309020029978474
  0.6874094331713467  0.7532477089793622  0.6124720407706351
  0.0719977596167374  0.6462842841720693  0.0485961100871108
  0.8149910540400620  0.4808557064549832  0.4847934289179660
  0.5670124165134989  0.8832367752457092  0.4225749342872167
  0.6237512753494733  0.4720599897361992  0.4907501459843356
  0.1998649975387840  0.4799670907583165  0.7423221650861147
  0.1277034514239750  0.2066018171367808  0.5083360482418311
  0.4396902747977433  0.5027386365943166  0.4009628289079529
  0.3565181584291900  0.1922713412355375  0.9317936332887033
  0.4864738600171844  0.0699451162662148  0.0435572586739000
  0.7424991935201165  0.4582360659670958  0.0683687243205780
  0.6608352524791299  0.0276327049091948  0.6004702869619282
  0.1872349350811919  0.0351139841675616  0.6627428768441715
  0.5609721686695430  0.9767611814093629  0.8085248427300371
  0.2585250793622855  0.7277182314253237  0.0734905931779016
  0.8423527749062936  0.6321436781878766  0.6026420305438951
  0.0190357771792667  0.6066693548988835  0.4580515297677456
  0.1335823923602612  0.8626595330228088  0.0415740884509614
  0.7282538614383433  0.4396151791954726  0.2975569846926613
  0.2826181638911938  0.8221297232513352  0.3009028642228117
  0.4557766135692121  0.6632196095903389  0.1089756039305916
  0.8434776441820327  0.2508077697851984  0.2953005692414125
  0.9482767163662370  0.6197551868285320  0.8607284826091112
  0.1149248564417688  0.8193656119858090  0.6632991614522447
  0.9062184162849258  0.5925200403152643  0.2858185911697592
  0.3264021607372266  0.5794585663319988  0.9105743346567170
  0.1156639800909966  0.1687020066463328  0.1142029737624460
  0.4105219862609606  0.9892138621474608  0.3135222124843672
  0.4423415815180218  0.4712232033736286  0.0351730891740169
  0.6156550426386944  0.7772094232205281  0.0823125185855169
  0.9704907602182277  0.7850859561447172  0.5051645546323043
 
  0.00000000E+00  0.00000000E+00  0.00000000E+00
  0.00000000E+00  0.00000000E+00  0.00000000E+00
  0.00000000E+00  0.00000000E+00  0.00000000E+00
  0.00000000E+00  0.00000000E+00  0.00000000E+00
  0.00000000E+00  0.00000000E+00  0.00000000E+00
  0.00000000E+00  0.00000000E+00  0.00000000E+00
  0.00000000E+00  0.00000000E+00  0.00000000E+00
  0.00000000E+00  0.00000000E+00  0.00000000E+00
  0.00000000E+00  0.00000000E+00  0.00000000E+00
  0.00000000E+00  0.00000000E+00  0.00000000E+00
  0.00000000E+00  0.00000000E+00  0.00000000E+00
  0.00000000E+00  0.00000000E+00  0.00000000E+00
  0.00000000E+00  0.00000000E+00  0.00000000E+00
  0.00000000E+00  0.00000000E+00  0.00000000E+00
  0.00000000E+00  0.00000000E+00  0.00000000E+00
  0.00000000E+00  0.00000000E+00  0.00000000E+00
  0.00000000E+00  0.00000000E+00  0.00000000E+00
  0.00000000E+00  0.00000000E+00  0.00000000E+00
  0.00000000E+00  0.00000000E+00  0.00000000E+00
  0.00000000E+00  0.00000000E+00  0.00000000E+00
  0.00000000E+00  0.00000000E+00  0.00000000E+00
  0.00000000E+00  0.00000000E+00  0.00000000E+00
  0.00000000E+00  0.00000000E+00  0.00000000E+00
  0.00000000E+00  0.00000000E+00  0.00000000E+00
  0.00000000E+00  0.00000000E+00  0.00000000E+00
  0.00000000E+00  0.00000000E+00  0.00000000E+00
  0.00000000E+00  0.00000000E+00  0.00000000E+00
  0.00000000E+00  0.00000000E+00  0.00000000E+00
  0.00000000E+00  0.00000000E+00  0.00000000E+00
  0.00000000E+00  0.00000000E+00  0.00000000E+00
  0.00000000E+00  0.00000000E+00  0.00000000E+00
  0.00000000E+00  0.00000000E+00  0.00000000E+00
  0.00000000E+00  0.00000000E+00  0.00000000E+00
  0.00000000E+00  0.00000000E+00  0.00000000E+00
  0.00000000E+00  0.00000000E+00  0.00000000E+00
  0.00000000E+00  0.00000000E+00  0.00000000E+00
  0.00000000E+00  0.00000000E+00  0.00000000E+00
  0.00000000E+00  0.00000000E+00  0.00000000E+00
  0.00000000E+00  0.00000000E+00  0.00000000E+00
  0.00000000E+00  0.00000000E+00  0.00000000E+00
  0.00000000E+00  0.00000000E+00  0.00000000E+00
  0.00000000E+00  0.00000000E+00  0.00000000E+00
  0.00000000E+00  0.00000000E+00  0.00000000E+00
  0.00000000E+00  0.00000000E+00  0.00000000E+00
  0.00000000E+00  0.00000000E+00  0.00000000E+00
  0.00000000E+00  0.00000000E+00  0.00000000E+00
  0.00000000E+00  0.00000000E+00  0.00000000E+00
  0.00000000E+00  0.00000000E+00  0.00000000E+00
  0.00000000E+00  0.00000000E+00  0.00000000E+00
  0.00000000E+00  0.00000000E+00  0.00000000E+00
  0.00000000E+00  0.00000000E+00  0.00000000E+00
  0.00000000E+00  0.00000000E+00  0.00000000E+00
  0.00000000E+00  0.00000000E+00  0.00000000E+00
  0.00000000E+00  0.00000000E+00  0.00000000E+00
  0.00000000E+00  0.00000000E+00  0.00000000E+00
  0.00000000E+00  0.00000000E+00  0.00000000E+00
  0.00000000E+00  0.00000000E+00  0.00000000E+00
  0.00000000E+00  0.00000000E+00  0.00000000E+00
  0.00000000E+00  0.00000000E+00  0.00000000E+00
  0.00000000E+00  0.00000000E+00  0.00000000E+00
  0.00000000E+00  0.00000000E+00  0.00000000E+00
  0.00000000E+00  0.00000000E+00  0.00000000E+00
  0.00000000E+00  0.00000000E+00  0.00000000E+00
  0.00000000E+00  0.00000000E+00  0.00000000E+00
  0.00000000E+00  0.00000000E+00  0.00000000E+00
  0.00000000E+00  0.00000000E+00  0.00000000E+00
  0.00000000E+00  0.00000000E+00  0.00000000E+00
  0.00000000E+00  0.00000000E+00  0.00000000E+00
  0.00000000E+00  0.00000000E+00  0.00000000E+00
  0.00000000E+00  0.00000000E+00  0.00000000E+00
  0.00000000E+00  0.00000000E+00  0.00000000E+00
  0.00000000E+00  0.00000000E+00  0.00000000E+00
  0.00000000E+00  0.00000000E+00  0.00000000E+00
  0.00000000E+00  0.00000000E+00  0.00000000E+00
  0.00000000E+00  0.00000000E+00  0.00000000E+00
  0.00000000E+00  0.00000000E+00  0.00000000E+00
  0.00000000E+00  0.00000000E+00  0.00000000E+00
  0.00000000E+00  0.00000000E+00  0.00000000E+00
  0.00000000E+00  0.00000000E+00  0.00000000E+00
  0.00000000E+00  0.00000000E+00  0.00000000E+00
  0.00000000E+00  0.00000000E+00  0.00000000E+00
  0.00000000E+00  0.00000000E+00  0.00000000E+00
  0.00000000E+00  0.00000000E+00  0.00000000E+00
  0.00000000E+00  0.00000000E+00  0.00000000E+00
  0.00000000E+00  0.00000000E+00  0.00000000E+00
  0.00000000E+00  0.00000000E+00  0.00000000E+00
  0.00000000E+00  0.00000000E+00  0.00000000E+00
  0.00000000E+00  0.00000000E+00  0.00000000E+00
  0.00000000E+00  0.00000000E+00  0.00000000E+00
  0.00000000E+00  0.00000000E+00  0.00000000E+00
  0.00000000E+00  0.00000000E+00  0.00000000E+00
  0.00000000E+00  0.00000000E+00  0.00000000E+00
  0.00000000E+00  0.00000000E+00  0.00000000E+00
  0.00000000E+00  0.00000000E+00  0.00000000E+00
  0.00000000E+00  0.00000000E+00  0.00000000E+00
  0.00000000E+00  0.00000000E+00  0.00000000E+00
  0.00000000E+00  0.00000000E+00  0.00000000E+00
  0.00000000E+00  0.00000000E+00  0.00000000E+00
  0.00000000E+00  0.00000000E+00  0.00000000E+00
  0.00000000E+00  0.00000000E+00  0.00000000E+00
  0.00000000E+00  0.00000000E+00  0.00000000E+00
  0.00000000E+00  0.00000000E+00  0.00000000E+00
  0.00000000E+00  0.00000000E+00  0.00000000E+00
  0.00000000E+00  0.00000000E+00  0.00000000E+00
  0.00000000E+00  0.00000000E+00  0.00000000E+00
  0.00000000E+00  0.00000000E+00  0.00000000E+00
  0.00000000E+00  0.00000000E+00  0.00000000E+00
  0.00000000E+00  0.00000000E+00  0.00000000E+00
  0.00000000E+00  0.00000000E+00  0.00000000E+00
  0.00000000E+00  0.00000000E+00  0.00000000E+00
  0.00000000E+00  0.00000000E+00  0.00000000E+00
  0.00000000E+00  0.00000000E+00  0.00000000E+00
  0.00000000E+00  0.00000000E+00  0.00000000E+00
  0.00000000E+00  0.00000000E+00  0.00000000E+00
  0.00000000E+00  0.00000000E+00  0.00000000E+00
  0.00000000E+00  0.00000000E+00  0.00000000E+00
  0.00000000E+00  0.00000000E+00  0.00000000E+00
  0.00000000E+00  0.00000000E+00  0.00000000E+00
  0.00000000E+00  0.00000000E+00  0.00000000E+00
  0.00000000E+00  0.00000000E+00  0.00000000E+00
  0.00000000E+00  0.00000000E+00  0.00000000E+00
  0.00000000E+00  0.00000000E+00  0.00000000E+00
  0.00000000E+00  0.00000000E+00  0.00000000E+00
  0.00000000E+00  0.00000000E+00  0.00000000E+00
  0.00000000E+00  0.00000000E+00  0.00000000E+00
  0.00000000E+00  0.00000000E+00  0.00000000E+00
  0.00000000E+00  0.00000000E+00  0.00000000E+00
  0.00000000E+00  0.00000000E+00  0.00000000E+00
  0.00000000E+00  0.00000000E+00  0.00000000E+00
  0.00000000E+00  0.00000000E+00  0.00000000E+00
  0.00000000E+00  0.00000000E+00  0.00000000E+00
  0.00000000E+00  0.00000000E+00  0.00000000E+00
  0.00000000E+00  0.00000000E+00  0.00000000E+00
  0.00000000E+00  0.00000000E+00  0.00000000E+00
  0.00000000E+00  0.00000000E+00  0.00000000E+00
  0.00000000E+00  0.00000000E+00  0.00000000E+00
  0.00000000E+00  0.00000000E+00  0.00000000E+00
  0.00000000E+00  0.00000000E+00  0.00000000E+00
  0.00000000E+00  0.00000000E+00  0.00000000E+00
  0.00000000E+00  0.00000000E+00  0.00000000E+00
  0.00000000E+00  0.00000000E+00  0.00000000E+00
  0.00000000E+00  0.00000000E+00  0.00000000E+00
  0.00000000E+00  0.00000000E+00  0.00000000E+00
  0.00000000E+00  0.00000000E+00  0.00000000E+00
  0.00000000E+00  0.00000000E+00  0.00000000E+00
  0.00000000E+00  0.00000000E+00  0.00000000E+00
  0.00000000E+00  0.00000000E+00  0.00000000E+00
  0.00000000E+00  0.00000000E+00  0.00000000E+00
  0.00000000E+00  0.00000000E+00  0.00000000E+00
  0.00000000E+00  0.00000000E+00  0.00000000E+00
  0.00000000E+00  0.00000000E+00  0.00000000E+00
  0.00000000E+00  0.00000000E+00  0.00000000E+00
  0.00000000E+00  0.00000000E+00  0.00000000E+00
  0.00000000E+00  0.00000000E+00  0.00000000E+00
  0.00000000E+00  0.00000000E+00  0.00000000E+00
  0.00000000E+00  0.00000000E+00  0.00000000E+00
  0.00000000E+00  0.00000000E+00  0.00000000E+00
  0.00000000E+00  0.00000000E+00  0.00000000E+00
  0.00000000E+00  0.00000000E+00  0.00000000E+00
  0.00000000E+00  0.00000000E+00  0.00000000E+00
  0.00000000E+00  0.00000000E+00  0.00000000E+00
  0.00000000E+00  0.00000000E+00  0.00000000E+00
  0.00000000E+00  0.00000000E+00  0.00000000E+00
  0.00000000E+00  0.00000000E+00  0.00000000E+00
  0.00000000E+00  0.00000000E+00  0.00000000E+00
  0.00000000E+00  0.00000000E+00  0.00000000E+00
  0.00000000E+00  0.00000000E+00  0.00000000E+00
  0.00000000E+00  0.00000000E+00  0.00000000E+00
  0.00000000E+00  0.00000000E+00  0.00000000E+00
  0.00000000E+00  0.00000000E+00  0.00000000E+00
  0.00000000E+00  0.00000000E+00  0.00000000E+00
  0.00000000E+00  0.00000000E+00  0.00000000E+00
  0.00000000E+00  0.00000000E+00  0.00000000E+00
  0.00000000E+00  0.00000000E+00  0.00000000E+00
  0.00000000E+00  0.00000000E+00  0.00000000E+00
  0.00000000E+00  0.00000000E+00  0.00000000E+00
  0.00000000E+00  0.00000000E+00  0.00000000E+00
  0.00000000E+00  0.00000000E+00  0.00000000E+00
  0.00000000E+00  0.00000000E+00  0.00000000E+00
  0.00000000E+00  0.00000000E+00  0.00000000E+00
  0.00000000E+00  0.00000000E+00  0.00000000E+00
  0.00000000E+00  0.00000000E+00  0.00000000E+00
  0.00000000E+00  0.00000000E+00  0.00000000E+00
  0.00000000E+00  0.00000000E+00  0.00000000E+00
  0.00000000E+00  0.00000000E+00  0.00000000E+00
  0.00000000E+00  0.00000000E+00  0.00000000E+00
  0.00000000E+00  0.00000000E+00  0.00000000E+00
  0.00000000E+00  0.00000000E+00  0.00000000E+00
  0.00000000E+00  0.00000000E+00  0.00000000E+00
  0.00000000E+00  0.00000000E+00  0.00000000E+00
  0.00000000E+00  0.00000000E+00  0.00000000E+00
  0.00000000E+00  0.00000000E+00  0.00000000E+00
  0.00000000E+00  0.00000000E+00  0.00000000E+00
  0.00000000E+00  0.00000000E+00  0.00000000E+00
  0.00000000E+00  0.00000000E+00  0.00000000E+00
  0.00000000E+00  0.00000000E+00  0.00000000E+00
  0.00000000E+00  0.00000000E+00  0.00000000E+00
  0.00000000E+00  0.00000000E+00  0.00000000E+00
  0.00000000E+00  0.00000000E+00  0.00000000E+00
  0.00000000E+00  0.00000000E+00  0.00000000E+00
  0.00000000E+00  0.00000000E+00  0.00000000E+00
  0.00000000E+00  0.00000000E+00  0.00000000E+00
